#p opt M062x/def2svp

Title Card Required

1 2
O  0.000000  3.943277  -2.956388
H  0.000000  0.755453  -0.471161
H  0.000000  -0.755453  -0.471161

