%nproc=24
%mem=24GB
#p opt=addredundant scrf=(cpcm,solvent=water) empiricaldispersion=GD3
M062X/def2svp

Title Card Required

1 2
N  -0.928057  0.013066  -0.083434
C  0.164536  -0.234068  0.822990
C  0.283042  0.838140  1.912078
H  1.082175  -0.218596  0.208585
H  0.047041  -1.241070  1.240789
C  1.485297  0.551976  2.801653
H  0.400100  1.822370  1.435979
H  -0.644175  0.855344  2.505173
H  1.559272  1.300300  3.601181
H  1.409600  -0.440440  3.268292
H  2.413725  0.587476  2.214690
C  -0.977338  1.246399  -0.834770
C  -2.092962  2.178820  -0.337018
H  -1.157830  0.966122  -1.883372
H  0.010240  1.722231  -0.759671
C  -2.086417  3.476907  -1.134706
H  -3.065228  1.673842  -0.442178
H  -1.944319  2.385598  0.733317
H  -2.884397  4.144950  -0.785778
H  -1.127541  4.002471  -1.022759
H  -2.246327  3.282084  -2.204558
C  -1.975673  -0.968136  -0.217130
C  -2.852365  -1.041303  1.044783
H  -1.475821  -1.938760  -0.371887
H  -2.574980  -0.719159  -1.102715
C  -3.936383  -2.098041  0.875500
H  -2.218120  -1.281978  1.911264
H  -3.300795  -0.054626  1.232499
H  -4.557712  -2.155682  1.778405
H  -4.591418  -1.859445  0.025779
H  -3.495410  -3.089440  0.699511
O  2.770318  -1.130903  -1.243489
H  2.295389  -1.863501  -0.806785
H  3.420680  -0.806317  -0.593182
O  0.307525  -0.997344  -2.408512
H  1.265149  -0.836212  -2.318660
H  0.141711  -1.071061  -3.356807
O  0.725413  -2.907502  -0.542208
H  0.409912  -2.455186  -1.351118
H  0.719760  -3.848432  -0.756369
O  2.271387  1.700358  -0.557369
H  2.322080  0.949515  -1.167091
H  2.969716  1.475703  0.077610
O  4.362391  0.176640  0.641696
H  5.243746  0.470889  0.372677
H  4.503646  -0.284927  1.479632
O  -0.164128  9.144945  0.100048
H  0.795886  9.144978  0.100054
H  -0.404485  10.074398  0.100074
O  -4.367780  7.103927  3.950904
H  -3.407724  7.103984  3.950911
H  -4.608055  8.033399  3.950895
O  0.457630  4.801358  -6.984574
H  1.417659  4.801466  -6.984739
H  0.217294  5.730858  -6.984701
O  5.013059  3.057907  6.852764
H  5.973068  3.057922  6.852773
H  4.772697  3.987335  6.852771
O  -9.102192  1.063860  -1.480980
H  -8.142137  1.064935  -1.480930
H  -9.342500  1.993809  -1.480986
O  7.669799  -0.988512  -4.883257
H  8.629781  -0.988488  -4.883218
H  7.429450  -0.059069  -4.883244
O  -2.205325  -2.730108  7.692556
H  -1.245023  -2.729906  7.692095
H  -2.445082  -1.800478  7.691827
O  -3.251460  -4.425707  -5.844462
H  -2.291546  -4.426522  -5.844654
H  -3.491911  -3.496706  -5.844561
O  4.776913  -6.459649  1.904511
H  5.736921  -6.459643  1.904508
H  4.536563  -5.530213  1.904514
O  -0.164111  -8.848417  0.100039
H  0.795885  -8.848436  0.100059
H  -0.404481  -7.919009  0.100051
O  2.016315  13.704863  1.816640
H  2.893604  14.087051  1.913217
H  1.384503  14.428906  1.824665
O  -1.129564  10.916342  5.403665
H  -0.554241  10.917024  4.629854
H  -0.717471  11.483138  6.061604
O  3.671243  8.946054  -6.648044
H  4.315313  9.040031  -7.356133
H  3.225393  9.793689  -6.557117
O  8.186379  7.130579  7.727244
H  9.012686  7.066598  8.215451
H  7.892402  8.044525  7.785865
O  -5.295402  4.956013  -0.411234
H  -5.807089  4.686263  0.357830
H  -5.403005  5.907066  -0.501740
O  5.586901  4.237956  -4.208011
H  5.405586  5.138557  -4.490719
H  4.803874  3.930604  -3.738617
O  -2.516333  2.166940  4.736495
H  -2.055351  2.833222  5.250766
H  -3.452348  2.383465  4.784774
O  -2.924406  1.412584  -4.195799
H  -3.876705  1.405662  -4.325102
H  -2.539959  1.805761  -4.984713
O  7.386949  -2.579454  4.294773
H  7.960048  -3.221925  4.721600
H  6.731798  -2.309773  4.945442
O  -7.433845  -3.026530  1.922775
H  -7.541470  -3.933053  1.621117
H  -8.193036  -2.533268  1.597106
O  2.416860  -4.606459  -5.210360
H  2.661313  -5.532915  -5.280738
H  3.209660  -4.119824  -4.963159
O  2.864700  -4.585293  6.330970
H  2.985951  -4.779148  7.264083
H  2.295596  -5.271312  5.968390
O  -6.923504  -6.218142  -2.476062
H  -6.331145  -6.827774  -2.927228
H  -6.768156  -5.347301  -2.856927
O  4.562329  -9.010431  -2.889448
H  4.116609  -9.831714  -3.124137
H  4.949277  -9.141425  -2.018018
O  3.144603  -13.076363  0.088502
H  2.309079  -13.212633  -0.368060
H  3.010133  -13.330141  1.006319

X 47 F
X 48 F
X 49 F
X 50 F
X 51 F
X 52 F
X 53 F
X 54 F
X 55 F
X 56 F
X 57 F
X 58 F
X 59 F
X 60 F
X 61 F
X 62 F
X 63 F
X 64 F
X 65 F
X 66 F
X 67 F
X 68 F
X 69 F
X 70 F
X 71 F
X 72 F
X 73 F
X 74 F
X 75 F
X 76 F
X 77 F
X 78 F
X 79 F
X 80 F
X 81 F
X 82 F
X 83 F
X 84 F
X 85 F
X 86 F
X 87 F
X 88 F
X 89 F
X 90 F
X 91 F
X 92 F
X 93 F
X 94 F
X 95 F
X 96 F
X 97 F
X 98 F
X 99 F
X 100 F
X 101 F
X 102 F
X 103 F
X 104 F
X 105 F
X 106 F
X 107 F
X 108 F
X 109 F
X 110 F
X 111 F
X 112 F
X 113 F
X 114 F
X 115 F
X 116 F
X 117 F
X 118 F
X 119 F
X 120 F
X 121 F

