!opt GFN2-XTB alpb(water)
%pal nprocs 8 end
%maxcore 2000
%geom Constraints {
C 0:90 C
}
 end
 end
* xyz 1 2
N -0.92807276059001 0.0130704641832 -0.08345255832094
C 0.16452803860127 -0.23414789389359 0.82295115722925
C 0.2830889182699 0.838129038331 1.91200794494798
H 1.08218684260969 -0.21859011230463 0.20865369953452
H 0.04704247731331 -1.24106414224073 1.24079301041332
C 1.48542824812215 0.5519547570946 2.80164745814406
H 0.40007336623047 1.82238741469453 1.43594692804915
H -0.64420402848042 0.8553543385244 2.50522820668378
H 1.55927182978745 1.30027460342883 3.60128402014902
H 1.40955159906786 -0.44037056549672 3.26830910363689
H 2.41365254128255 0.58744986588381 2.2145407940977
C -0.97735320157837 1.2464019266328 -0.83479263130406
C -2.09300431783357 2.17884794756393 -0.33696269618281
H -1.15779195399986 0.96612187097708 -1.88333617786938
H 0.01024194793656 1.7222021475824 -0.75963122110193
C -2.08636292984119 3.47683872722321 -1.1346192682591
H -3.06521638100002 1.67387923908788 -0.44225346376196
H -1.94430871137993 2.38559259605358 0.73331374518677
H -2.88440135425173 4.14496183950962 -0.78584514867752
H -1.12753315086435 4.00256954615276 -1.02268680475666
H -2.24634587274011 3.28205842486398 -2.20468188083669
C -1.97573035698786 -0.96814030651272 -0.21711542538451
C -2.85244914279735 -1.04120960881072 1.04474740549973
H -1.47579149547425 -1.93874615295137 -0.37187899530379
H -2.57490286404362 -0.71917982880388 -1.10269893039511
C -3.93620677321565 -2.09808021402343 0.87554397595523
H -2.21810470528193 -1.28200452716412 1.91125472784729
H -3.30078852546152 -0.05464202334841 1.23252063628173
H -4.55781057667044 -2.15572129629225 1.77838273869349
H -4.59144026838218 -1.8593888230532 0.02579567705177
H -3.49542384904415 -3.08944493152257 0.69950092963645
O 2.77027996776773 -1.13088860866811 -1.24353124386129
H 2.29540798661785 -1.86350738432709 -0.80680042528618
H 3.42067037860127 -0.8063278713108 -0.59316961898184
O 0.30749524325032 -0.99748204809928 -2.40848030519681
H 1.26517225480748 -0.83623267981742 -2.31859566816285
H 0.1416947068254 -1.07097844315171 -3.35688222138931
O 0.72557266607615 -2.90740202594558 -0.54235780081612
H 0.40995771548056 -2.45518057525897 -1.35113850744949
H 0.71959412409433 -3.84845446325874 -0.75624039214358
O 2.27141349677416 1.70035748363011 -0.55734397916272
H 2.32202995337628 0.94952487262184 -1.1671227137886
H 2.96970049013153 1.47567414722283 0.07762141456881
O 4.36239857057012 0.17669875227324 0.64170188687367
H 5.24377344831395 0.47086034543343 0.37265173402163
H 4.50365642196974 -0.28492587130201 1.47966088505282
O -5.61778630657245 6.67674596346665 2.62280104201507
H -4.78765255247945 7.05197498885606 2.31545441192634
H -6.1990450544346 7.41147806326015 2.83587145715125
O -2.69363014833441 2.50980773063176 3.12255068576615
H -2.32026210577579 3.28044287980713 3.55727235985562
H -3.61641997459159 2.47020927757794 3.39029878118745
O -2.11721520312664 2.99829767973366 -4.66494216659107
H -1.31785601734052 2.94316673331226 -5.19341303522505
H -2.77830591361132 3.4529193680055 -5.19394027732959
O 2.4913444308144 2.7013894812806 5.41466309456482
H 3.15779223540714 3.34977469960629 5.17092816776385
H 2.7870735584697 2.28116231578563 6.22786366356145
O -8.15785051202199 2.23611233212334 0.51414569027361
H -7.4868478990966 2.92421910034938 0.45450682428429
H -8.73291015380258 2.46848645978926 1.24827054789746
O 6.47699626820951 3.27687984266927 -3.75952172720684
H 6.90958584093978 4.12961503203489 -3.66576789305941
H 5.61389248963739 3.35405591002835 -3.34042957838925
O -2.00963783636899 -0.41933170804105 7.3433219010183
H -1.31516650284474 0.18144487791902 7.05127751750424
H -2.4380460330572 -0.7505152332265 6.5480610542357
O -4.42950051858008 -0.39534098204911 -2.50246666874943
H -4.43912393193758 -0.87735753507651 -3.3358952377094
H -5.16483255905768 0.22219189201093 -2.537454364921
O 7.62993362457611 1.61405750968483 4.36744011138857
H 7.71686053657324 1.21299488136197 5.23767191986633
H 8.42185749478637 2.13807727527105 4.21578323689504
O -9.0499710382707 -2.40924123483567 -2.49746830233325
H -8.75885475090992 -2.95383281566575 -1.75918064691726
H -9.38710776776784 -1.5885144837749 -2.12554825284362
O 3.50807236948005 -0.45928433099019 -6.62607005543058
H 3.9137305153195 -0.10912862015829 -7.4238397103718
H 4.09717893164562 -0.24685538287771 -5.89444301427318
O 1.61599361202527 -2.59998199697728 4.50163164469606
H 2.31406877784455 -2.67715065555727 5.15699156888564
H 0.97234756290917 -3.28937728633491 4.69220940758668
O -3.60911045078999 -5.61032968512202 -2.36114175083863
H -3.04168245226214 -5.31216916293468 -3.07931757898142
H -4.51671201462148 -5.51397358015787 -2.66203004366609
O 1.23520320544701 -5.39488169778472 -5.18307970107771
H 2.00448704479536 -5.92916138023399 -4.96300510660201
H 1.5321452379992 -4.7041195709702 -5.7835897022715
O 0.27087366826455 -8.57056501950924 -0.56329397811016
H 0.12164006096913 -8.42898748204631 -1.50469085993993
H -0.56645741498775 -8.40407387390716 -0.11850393785978
O -0.54187107 17.41147806 0.0423343
H 0.41812893 17.41147806 0.0423343
H -0.78223588 18.3408998 0.0423343
O -5.6940769 17.78814272 4.76217689
H -4.7340769 17.78814272 4.76217689
H -5.9344417 18.71756445 4.76217689
O 0.15795834 13.57828163 -7.93186094
H 1.11795834 13.57828163 -7.93186094
H -0.08240646 14.50770337 -7.93186094
O 5.78237993 13.49627781 8.29119983
H 6.74237993 13.49627781 8.29119983
H 5.54201512 14.42569954 8.29119983
O -13.37771678 13.64862539 -2.22814607
H -12.41771678 13.64862539 -2.22814607
H -13.61808159 14.57804713 -2.22814607
O 11.55935089 12.39962394 -7.65547256
H 12.51935089 12.39962394 -7.65547256
H 11.31898608 13.32904568 -7.65547256
O -4.2735026 10.36255101 13.92381757
H -3.3135026 10.36255101 13.92381757
H -4.5138674 11.29197275 13.92381757
O -7.11558067 8.58158086 -12.61494352
H -6.15558067 8.58158086 -12.61494352
H -7.35594548 9.5110026 -12.61494352
O 16.06799365 8.82945583 6.10823026
H 17.02799365 8.82945583 6.10823026
H 15.82762885 9.75887756 6.10823026
O -16.4929717 7.03605093 6.62671676
H -15.5329717 7.03605093 6.62671676
H -16.7333365 7.96547267 6.62671676
O 6.79193047 5.61057058 -15.62957362
H 7.75193047 5.61057058 -15.62957362
H 6.55156567 6.53999231 -15.62957362
O 4.54400075 4.18861999 16.2568951
H 5.50400075 4.18861999 16.2568951
H 4.30363595 5.11804172 16.2568951
O -16.17376388 3.12414516 -9.0166671
H -15.21376388 3.12414516 -9.0166671
H -16.41412868 4.0535669 -9.0166671
O 17.39248284 1.87159386 -3.9004831
H 18.35248284 1.87159386 -3.9004831
H 17.15211804 2.80101559 -3.9004831
O -10.19808338 0.54106036 13.77730265
H -9.23808338 0.54106036 13.77730265
H -10.43844818 1.4704821 13.77730265
O -2.70342675 -0.61858374 -16.63824169
H -1.74342675 -0.61858374 -16.63824169
H -2.94379156 0.31083799 -16.63824169
O 14.2749962 -2.05360271 12.53000573
H 15.2349962 -2.05360271 12.53000573
H 14.0346314 -1.12418098 12.53000573
O -19.12757916 -3.29416703 0.81091168
H -18.16757916 -3.29416703 0.81091168
H -19.36794397 -2.36474529 0.81091168
O 11.97237448 -4.42959044 -12.41101148
H 12.93237448 -4.42959044 -12.41101148
H 11.73200968 -3.50016871 -12.41101148
O -1.29343816 -5.35003938 16.29566542
H -0.33343816 -5.35003938 16.29566542
H -1.53380296 -4.42061765 16.29566542
O -11.06308829 -6.77004162 -12.56560024
H -10.10308829 -6.77004162 -12.56560024
H -11.3034531 -5.84061989 -12.56560024
O 14.9287754 -7.86645852 2.1238879
H 15.8887754 -7.86645852 2.1238879
H 14.68841059 -6.93703678 2.1238879
O -12.06332733 -8.52105338 8.05866347
H -11.10332733 -8.52105338 8.05866347
H -12.30369213 -7.59163164 8.05866347
O 2.63432632 -10.50926226 -14.07618154
H 3.59432632 -10.50926226 -14.07618154
H 2.39396151 -9.57984053 -14.07618154
O 5.52583128 -10.62206657 10.63128397
H 6.48583128 -10.62206657 10.63128397
H 5.28546648 -9.69264484 10.63128397
O -12.29462448 -12.99140658 -3.70711459
H -11.33462448 -12.99140658 -3.70711459
H -12.53498928 -12.06198485 -3.70711459
O 9.08829919 -13.85157277 -4.40704862
H 10.04829919 -13.85157277 -4.40704862
H 8.84793439 -12.92215104 -4.40704862
O -3.89565366 -14.8154324 8.05602635
H -2.93565366 -14.8154324 8.05602635
H -4.13601847 -13.88601067 8.05602635
O -2.79736531 -17.0401986 -6.22851425
H -1.83736531 -17.0401986 -6.22851425
H -3.03773011 -16.11077687 -6.22851425
O -0.54187107 -18.57056502 0.0423343
H 0.41812893 -18.57056502 0.0423343
H -0.78223588 -17.64114328 0.0423343
*
