!opt GFN2-XTB alpb(water)
%pal nprocs 8 end
%maxcore 2000
%geom Constraints {
C 0:45 C
}
 end
 end
* xyz 1 2
N -0.92806 0.01307 -0.08343
C 0.16453 -0.23408 0.82294
C 0.28304 0.83814 1.91208
H 1.0822 -0.21859 0.20862
H 0.04704 -1.24107 1.24079
C 1.4853 0.55198 2.80166
H 0.4001 1.82237 1.43598
H -0.64417 0.85535 2.50516
H 1.55927 1.3003 3.60118
H 1.40961 -0.44043 3.26827
H 2.41372 0.58747 2.21468
C -0.97734 1.2464 -0.83477
C -2.09296 2.17882 -0.33699
H -1.15783 0.96612 -1.88337
H 0.01024 1.72223 -0.75967
C -2.08642 3.4769 -1.13464
H -3.06522 1.67388 -0.44225
H -1.94432 2.3856 0.73332
H -2.88439 4.14497 -0.78582
H -1.12754 4.00247 -1.02276
H -2.24633 3.28208 -2.20456
C -1.97568 -0.96816 -0.21713
C -2.85237 -1.04129 1.04479
H -1.47582 -1.93876 -0.37189
H -2.57497 -0.71912 -1.1027
C -3.93638 -2.09805 0.8755
H -2.21812 -1.28198 1.91126
H -3.3008 -0.05463 1.23252
H -4.55773 -2.1557 1.7784
H -4.59139 -1.85941 0.02577
H -3.49541 -3.08944 0.69951
O 2.7703 -1.13089 -1.2435
H 2.29541 -1.86352 -0.8068
H 3.42068 -0.80632 -0.59318
O 0.30752 -0.99733 -2.4085
H 1.26516 -0.83626 -2.31868
H 0.14172 -1.07108 -3.35681
O 0.7254 -2.90749 -0.5422
H 0.4099 -2.4552 -1.35113
H 0.71978 -3.84843 -0.75636
O 2.27141 1.70036 -0.55737
H 2.32207 0.94952 -1.1671
H 2.9697 1.47569 0.07762
O 4.36239 0.17666 0.6417
H 5.24375 0.47088 0.37267
H 4.50365 -0.28493 1.47963
O -0.012344774474615794 4.627628944220897 0.007525947078023926
H 0.8876552255253842 4.627628944220897 0.007525947078023926
H -0.3053561134860568 5.478595662260282 0.007525947078023926
O -1.7987898730455774 4.040990230429686 1.6449335466230415
H -0.8987898730455773 4.040990230429686 1.6449335466230415
H -2.0918012120570184 4.891956948469071 1.6449335466230415
O 0.26248167990290644 3.2459116492585154 -3.1544363086003195
H 1.1624816799029065 3.2459116492585154 -3.1544363086003195
H -0.030529659108534557 4.096878367297901 -3.1544363086003195
O 2.2776072365528055 2.6260781275878164 2.996586842191118
H 3.1776072365528054 2.6260781275878164 2.996586842191118
H 1.9845958975413645 3.4770448456272014 2.996586842191118
O -4.21116325068766 2.0269047978975157 -0.7377453441341532
H -3.31116325068766 2.0269047978975157 -0.7377453441341532
H -4.504174589699101 2.877871515936901 -0.7377453441341532
O 3.5633190771043934 1.2713640196676956 -2.267187182836884
H 4.463319077104393 1.2713640196676956 -2.267187182836884
H 3.2703077380929524 2.122330737707081 -2.267187182836884
O -1.2211493900183035 0.6765823785983438 4.513662565722856
H -0.32114939001830345 0.6765823785983438 4.513662565722856
H -1.5141607290297445 1.527549096637729 4.513662565722856
O -2.118726862944516 0.00430102384831299 -4.0433626843260795
H -1.218726862944516 0.00430102384831299 -4.0433626843260795
H -2.411738201955957 0.8552677418876982 -4.0433626843260795
O 4.135594611850366 -0.6328894955791924 1.527361346737736
H 5.0355946118503665 -0.6328894955791924 1.527361346737736
H 3.842583272838925 0.2180772224601928 1.527361346737736
O -4.206860125285134 -1.3515594029859461 1.7382140050901207
H -3.306860125285134 -1.3515594029859461 1.7382140050901207
H -4.499871464296575 -0.500592684946561 1.7382140050901207
O 1.6791498512991667 -1.894398195007565 -3.616651673443336
H 2.579149851299167 -1.894398195007565 -3.616651673443336
H 1.3861385122877257 -1.0434314769681798 -3.616651673443336
O 1.1130034236231656 -2.6169590772478135 3.5999330026890193
H 2.0130034236231658 -2.6169590772478135 3.5999330026890193
H 0.8199920846117246 -1.7659923592084283 3.5999330026890193
O -2.8011376471478195 -3.2850491134061435 -1.6078813490761203
H -1.9011376471478196 -3.2850491134061435 -1.6078813490761203
H -3.0941489861592606 -2.434082395366758 -1.6078813490761203
O 2.225070944865033 -3.8160919368852197 -0.4822457073622329
H 3.125070944865033 -3.8160919368852197 -0.4822457073622329
H 1.932059605853592 -2.9651252188458344 -0.4822457073622329
O -0.015318761558083815 -4.528671549929225 0.009339027539471856
H 0.8846812384419163 -4.528671549929225 0.009339027539471856
H -0.3083301005695248 -3.67770483188984 0.009339027539471856
*
