%chk=file.chk
%nproc=24
%mem=24GB
#p opt=addredundant scrf=(cpcm,solvent=water) empiricaldispersion=GD3
M062X/def2svp

Title Card Required

1 2
N  -1.910430  -3.076080  -0.628800
C  -2.378940  -2.311910  -1.760080
C  -1.422950  -2.390570  -2.960130
H  -2.445620  -1.270240  -1.404920
H  -3.404745  -2.664823  -1.943692
C  -1.986680  -1.590270  -4.126760
H  -0.435990  -2.000950  -2.666710
H  -1.305410  -3.443860  -3.254780
H  -1.274420  -1.580880  -4.962540
H  -2.920330  -2.048180  -4.479790
H  -2.185270  -0.548540  -3.835820
C  -0.702050  -2.679540  0.050800
C  0.477230  -3.619800  -0.258810
H  -0.914270  -2.707110  1.133150
H  -0.471730  -1.648380  -0.245440
C  1.766560  -3.035250  0.306140
H  0.277170  -4.609290  0.180760
H  0.557360  -3.754110  -1.348020
H  2.610080  -3.706370  0.100140
H  1.978090  -2.057630  -0.151740
H  1.675370  -2.900810  1.392510
C  -2.618420  -4.257130  -0.207840
C  -2.495790  -5.395310  -1.230460
H  -3.680160  -3.978930  -0.110700
H  -2.238170  -4.550160  0.780840
C  -3.204870  -6.643700  -0.722180
H  -2.929030  -5.061870  -2.183310
H  -1.432620  -5.602230  -1.423950
H  -3.110240  -7.455600  -1.453180
H  -2.760540  -6.994100  0.220080
H  -4.272420  -6.444440  -0.550180
O  -3.600380  -1.538140  0.969540
H  -4.315660  -2.201170  1.038520
H  -4.010560  -0.734130  0.598970
O  -2.785920  -3.201140  2.998720
H  -2.910620  -2.373380  2.498510
H  -1.879890  -3.152370  3.342890
O  -5.244190  -3.714030  1.561750
H  -4.456880  -4.092010  1.988290
H  -5.688740  -3.270830  2.311540
O  -1.533250  0.331580  0.144910
H  -1.898460  -0.307760  0.772810
H  -2.339230  0.775820  -0.165460
O  -4.233390  0.849590  -0.303150
H  -4.634310  1.605610  0.146130
H  -4.623730  0.838150  -1.187530
O  9.271490  -1.376440  1.261220
H  9.457600  -0.487870  1.573400
H  10.117650  -1.828030  1.303150
O  7.265790  -3.657790  -3.976920
H  7.451870  -2.769190  -3.664700
H  8.111950  -4.109330  -3.934920
O  3.804740  -1.765480  7.538780
H  3.990760  -0.876990  7.851160
H  4.650850  -2.217100  7.580870
O  5.777470  6.856010  -4.167690
H  5.963540  7.744570  -3.855540
H  6.623590  6.404400  -4.125760
O  -0.538340  -8.111310  -1.208640
H  -0.351320  -7.222950  -0.896320
H  0.308240  -8.563070  -1.166500
O  0.061210  6.940960  7.167340
H  0.247300  7.829510  7.479470
H  0.907350  6.489400  7.209270
O  -1.013030  1.842960  -8.049720
H  -0.826800  2.731610  -7.736980
H  -0.166740  1.391660  -8.006860
O  -5.548830  -2.596310  4.072130
H  -5.363560  -1.707690  4.384380
H  -4.703140  -3.047910  4.114110
O  -4.398330  7.562170  -0.839090
H  -4.212250  8.450720  -0.526900
H  -3.552200  7.110560  -0.797180
O  -8.010810  3.059320  -1.064160
H  -7.824750  3.947910  -0.751980
H  -7.164680  2.607730  -1.022180
O  14.416740  0.010770  0.951500
H  14.973160  0.756290  1.195700
H  14.991340  -0.750210  0.832100
O  11.845350  -1.183070  -3.792110
H  11.802930  -0.873020  -2.880050
H  12.601070  -0.752340  -4.201190
O  8.475640  0.283910  8.804190
H  8.549280  0.653440  9.689090
H  9.221550  -0.311610  8.683570
O  10.478910  9.040380  -3.428670
H  10.675160  9.961210  -3.625560
H  11.311490  8.559820  -3.461040
O  4.151420  -5.240120  -0.469630
H  3.946850  -5.426180  -1.391490
H  5.026060  -5.600060  -0.297190
O  4.812210  3.917930  6.533430
H  5.585770  3.447600  6.855100
H  4.459310  3.405210  5.798290
O  3.039720  -0.501330  -4.748350
H  3.871640  -0.091230  -4.994940
H  3.075850  -1.407220  -5.070440
O  0.451220  -3.259560  3.388640
H  0.234460  -4.176090  3.199180
H  0.746280  -3.226710  4.303390
O  0.311940  9.708090  -1.728020
H  -0.108800  10.519540  -2.024520
H  0.574000  9.222180  -2.515770
O  -3.463760  -4.581010  -4.383380
H  -4.415590  -4.543740  -4.252770
H  -3.202140  -5.498750  -4.261140
O  -4.497210  2.876850  5.298000
H  -5.353690  3.311380  5.323710
H  -3.826730  3.561700  5.387160
O  -2.084300  6.601840  -5.365270
H  -2.060580  7.029930  -6.225020
H  -2.925950  6.140050  -5.299360
O  -7.309150  -4.585500  -0.509030
H  -7.870030  -4.016560  0.027460
H  -6.518720  -4.765810  0.010830
O  -7.847620  6.615110  3.252380
H  -8.769720  6.337620  3.221130
H  -7.724350  7.255910  2.544930
O  -11.432700  7.160780  -0.523790
H  -11.816730  6.289860  -0.385410
H  -11.519150  7.362550  -1.460110

X 48 F
X 49 F
X 50 F
X 51 F
X 52 F
X 53 F
X 54 F
X 55 F
X 56 F
X 57 F
X 58 F
X 59 F
X 60 F
X 61 F
X 62 F
X 63 F
X 64 F
X 65 F
X 66 F
X 67 F
X 68 F
X 69 F
X 70 F
X 71 F
X 72 F
X 73 F
X 74 F
X 75 F
X 76 F
X 77 F
X 78 F
X 79 F
X 80 F
X 81 F
X 82 F
X 83 F
X 84 F
X 85 F
X 86 F
X 87 F
X 88 F
X 89 F
X 90 F
X 91 F
X 92 F
X 93 F
X 94 F
X 95 F
X 96 F
X 97 F
X 98 F
X 99 F
X 100 F
X 101 F
X 102 F
X 103 F
X 104 F
X 105 F
X 106 F
X 107 F
X 108 F
X 109 F
X 110 F
X 111 F
X 112 F
X 113 F
X 114 F
X 115 F
X 116 F
X 117 F
X 118 F
X 119 F
X 120 F
X 121 F

