!opt GFN2-XTB alpb(water)
%pal nprocs 8 end
%maxcore 2000
%geom Constraints {
C 0:75 C
}
 end
 end
* xyz 1 2
N -0.92806 0.01307 -0.08343
C 0.16453 -0.23408 0.82294
C 0.28304 0.83814 1.91208
H 1.0822 -0.21859 0.20862
H 0.04704 -1.24107 1.24079
C 1.4853 0.55198 2.80166
H 0.4001 1.82237 1.43598
H -0.64417 0.85535 2.50516
H 1.55927 1.3003 3.60118
H 1.40961 -0.44043 3.26827
H 2.41372 0.58747 2.21468
C -0.97734 1.2464 -0.83477
C -2.09296 2.17882 -0.33699
H -1.15783 0.96612 -1.88337
H 0.01024 1.72223 -0.75967
C -2.08642 3.4769 -1.13464
H -3.06522 1.67388 -0.44225
H -1.94432 2.3856 0.73332
H -2.88439 4.14497 -0.78582
H -1.12754 4.00247 -1.02276
H -2.24633 3.28208 -2.20456
C -1.97568 -0.96816 -0.21713
C -2.85237 -1.04129 1.04479
H -1.47582 -1.93876 -0.37189
H -2.57497 -0.71912 -1.1027
C -3.93638 -2.09805 0.8755
H -2.21812 -1.28198 1.91126
H -3.3008 -0.05463 1.23252
H -4.55773 -2.1557 1.7784
H -4.59139 -1.85941 0.02577
H -3.49541 -3.08944 0.69951
O 2.7703 -1.13089 -1.2435
H 2.29541 -1.86352 -0.8068
H 3.42068 -0.80632 -0.59318
O 0.30752 -0.99733 -2.4085
H 1.26516 -0.83626 -2.31868
H 0.14172 -1.07108 -3.35681
O 0.7254 -2.90749 -0.5422
H 0.4099 -2.4552 -1.35113
H 0.71978 -3.84843 -0.75636
O 2.27141 1.70036 -0.55737
H 2.32207 0.94952 -1.1671
H 2.9697 1.47569 0.07762
O 4.36239 0.17666 0.6417
H 5.24375 0.47088 0.37267
H 4.50365 -0.28493 1.47963
O -0.16411652 9.14497 0.10005304
H 0.79588348 9.14497 0.10005304
H -0.40448133 10.07439173 0.10005304
O -4.36773137 7.10396325 3.95090859
H -3.40773137 7.10396325 3.95090859
H -4.60809618 8.03338499 3.95090859
O 0.45765255 4.80143 -6.98468479
H 1.41765255 4.80143 -6.98468479
H 0.21728774 5.73085174 -6.98468479
O 5.01306628 3.05791782 6.85277123
H 5.97306628 3.05791782 6.85277123
H 4.77270148 3.98733955 6.85277123
O -9.10216377 1.06436273 -1.48096166
H -8.14216377 1.06436273 -1.48096166
H -9.34252857 1.99378446 -1.48096166
O 7.66980029 -0.98850238 -4.88324358
H 8.62980029 -0.98850238 -4.88324358
H 7.42943548 -0.05908065 -4.88324358
O -2.20503992 -2.72997447 7.69218637
H -1.24503992 -2.72997447 7.69218637
H -2.44540473 -1.80055273 7.69218637
O -3.25151852 -4.42610154 -5.84455164
H -2.29151852 -4.42610154 -5.84455164
H -3.49188333 -3.49667981 -5.84455164
O 4.7769195 -6.45964365 1.90451147
H 5.7369195 -6.45964365 1.90451147
H 4.5365547 -5.53022192 1.90451147
O -0.16411652 -8.84843 0.10005304
H 0.79588348 -8.84843 0.10005304
H -0.40448133 -7.91900827 0.10005304
O -0.05743095 15.07439173 0.11609956
H 0.90256905 15.07439173 0.11609956
H -0.29779575 16.00381346 0.11609956
O -5.6631877 12.87129619 5.25143194
H -4.7031877 12.87129619 5.25143194
H -5.90355251 13.80071793 5.25143194
O 0.79325786 10.15124079 -9.57706069
H 1.75325786 10.15124079 -9.57706069
H 0.55289306 11.08066253 -9.57706069
O 6.94302827 8.2316522 9.24695895
H 7.90302827 8.2316522 9.24695895
H 6.70266346 9.16107394 9.24695895
O -12.75551059 6.33690644 -2.13001194
H -11.79551059 6.33690644 -2.13001194
H -12.99587539 7.26632818 -2.13001194
O 11.46524191 4.29173134 -7.21368172
H 12.42524191 4.29173134 -7.21368172
H 11.22487711 5.22115308 -7.21368172
O -3.28620936 2.01534552 12.12699431
H -2.32620936 2.01534552 12.12699431
H -3.52657416 2.94476726 12.12699431
O -5.52965735 0.2201749 -10.42033938
H -4.56965735 0.2201749 -10.42033938
H -5.77002215 1.14959664 -10.42033938
O 11.55279655 -1.56387066 4.35613602
H 12.51279655 -1.56387066 4.35613602
H 11.31243175 -0.63444893 4.35613602
O -10.85265903 -3.26176446 4.57221278
H -9.89265903 -3.26176446 4.57221278
H -11.09302384 -2.33234273 4.57221278
O 4.89635526 -5.32378952 -10.46985384
H 5.85635526 -5.32378952 -10.46985384
H 4.65599046 -4.39436779 -10.46985384
O 2.97004582 -6.82352003 9.76817257
H 3.93004582 -6.82352003 9.76817257
H 2.72968102 -5.8940983 9.76817257
O -7.53230794 -8.5973419 -4.21574445
H -6.57230794 -8.5973419 -4.21574445
H -7.77267274 -7.66792017 -4.21574445
O 6.70511991 -11.30213903 -1.37062828
H 7.66511991 -11.30213903 -1.37062828
H 6.46475511 -10.37271729 -1.37062828
O -0.05743095 -13.84843 0.11609956
H 0.90256905 -13.84843 0.11609956
H -0.29779575 -12.91900827 0.11609956
*
