#p opt M062x/def2svp

Title Card Required

1 2
O  0.000000  0.197164  -0.035919
H  0.000000  0.755453  -0.471161
H  0.000000  -0.755453  -0.471161

B 1 2 F
X 3 F
X 4 F
