!opt GFN2-XTB alpb(water)
%pal nprocs 8 end
%maxcore 2000
%geom Constraints {
C 0:45 C
}
 end
 end
* xyz 1 2
N -0.73651 0.35423 0.34792
C 0.30113 0.41648 1.25266
C 1.12651 1.66909 1.40638
H 1.25731 -0.69542 0.33346
H 0.08668 -0.12636 2.18292
C 2.41047 1.40834 2.18634
H 1.38724 2.08235 0.42154
H 0.5258 2.44 1.92824
H 2.96612 2.33959 2.36107
H 2.197 0.95214 3.1646
H 3.06671 0.72342 1.62954
C -0.64765 1.00802 -0.94733
C -1.39291 2.33931 -1.01759
H -1.04446 0.31269 -1.70485
H 0.41765 1.16347 -1.17854
C -1.23489 2.99919 -2.38175
H -2.45931 2.16581 -0.80065
H -1.01105 3.00073 -0.22341
H -1.7768 3.95314 -2.43057
H -0.17516 3.20053 -2.59932
H -1.62219 2.34896 -3.18042
C -1.86939 -0.5128 0.62747
C -2.83606 0.06661 1.6591
H -1.49335 -1.49082 0.97934
H -2.39255 -0.70198 -0.32084
C -3.98975 -0.88576 1.94734
H -2.28014 0.28135 2.58581
H -3.21754 1.03137 1.28941
H -4.67909 -0.46442 2.69127
H -4.56601 -1.09495 1.03366
H -3.61913 -1.84619 2.33586
O 1.64728 -1.37674 -0.34313
H 0.98096 -2.22737 -0.38556
H 2.59598 -1.55981 -0.08174
O -1.6004 -2.1081 -2.28613
H -1.2447 -2.03248 -3.18199
H -2.50685 -2.42411 -2.40213
O -0.02156 -3.14426 -0.45164
H -0.65153 -2.85669 -1.16661
H 0.25551 -4.04672 -0.65984
O 3.01121 0.99397 -1.18634
H 2.5109 0.33745 -1.68688
H 3.58685 0.44414 -0.63429
O 4.16268 -1.30602 0.26331
H 4.8206 -1.76522 -0.27848
H 4.44152 -1.4458 1.17976
O -0.11549717 8.95314 0.04949935
H 0.84450283 8.95314 0.04949935
H -0.35586198 9.88256173 0.04949935
O -3.73478526 6.15903799 3.36506371
H -2.77478526 6.15903799 3.36506371
H -3.97515006 7.08845972 3.36506371
O 0.54472022 5.13095177 -7.47333731
H 1.50472022 5.13095177 -7.47333731
H 0.30435541 6.06037351 -7.47333731
O 5.18997018 3.16814134 6.96954202
H 6.14997018 3.16814134 6.96954202
H 4.94960538 4.09756307 6.96954202
O -8.97574227 1.09120872 -1.51775325
H -8.01574227 1.09120872 -1.51775325
H -9.21610708 2.02063045 -1.51775325
O 7.86699697 -0.97251034 -5.02831001
H 8.82699697 -0.97251034 -5.02831001
H 7.62663216 -0.0430886 -5.02831001
O -2.24622682 -2.81660144 7.97570743
H -1.28622682 -2.81660144 7.97570743
H -2.48659163 -1.8871797 7.97570743
O -3.61043282 -4.98120245 -6.67978657
H -2.65043282 -4.98120245 -6.67978657
H -3.85079763 -4.05178072 -6.67978657
O 5.36506715 -7.13472431 2.05099265
H 6.32506715 -7.13472431 2.05099265
H 5.12470235 -6.20530257 2.05099265
O -0.11549717 -9.04672 0.04949935
H 0.84450283 -9.04672 0.04949935
H -0.35586198 -8.11729827 0.04949935
*
