!opt GFN2-XTB alpb(water)
%pal nprocs 8 end
%maxcore 2000
%geom Constraints {
C 0:81 C
}
 end
 end
* xyz 1 2
N -0.92806 0.01307 -0.08343
C 0.16453 -0.23408 0.82294
C 0.28304 0.83814 1.91208
H 1.0822 -0.21859 0.20862
H 0.04704 -1.24107 1.24079
C 1.4853 0.55198 2.80166
H 0.4001 1.82237 1.43598
H -0.64417 0.85535 2.50516
H 1.55927 1.3003 3.60118
H 1.40961 -0.44043 3.26827
H 2.41372 0.58747 2.21468
C -0.97734 1.2464 -0.83477
C -2.09296 2.17882 -0.33699
H -1.15783 0.96612 -1.88337
H 0.01024 1.72223 -0.75967
C -2.08642 3.4769 -1.13464
H -3.06522 1.67388 -0.44225
H -1.94432 2.3856 0.73332
H -2.88439 4.14497 -0.78582
H -1.12754 4.00247 -1.02276
H -2.24633 3.28208 -2.20456
C -1.97568 -0.96816 -0.21713
C -2.85237 -1.04129 1.04479
H -1.47582 -1.93876 -0.37189
H -2.57497 -0.71912 -1.1027
C -3.93638 -2.09805 0.8755
H -2.21812 -1.28198 1.91126
H -3.3008 -0.05463 1.23252
H -4.55773 -2.1557 1.7784
H -4.59139 -1.85941 0.02577
H -3.49541 -3.08944 0.69951
O 2.7703 -1.13089 -1.2435
H 2.29541 -1.86352 -0.8068
H 3.42068 -0.80632 -0.59318
O 0.30752 -0.99733 -2.4085
H 1.26516 -0.83626 -2.31868
H 0.14172 -1.07108 -3.35681
O 0.7254 -2.90749 -0.5422
H 0.4099 -2.4552 -1.35113
H 0.71978 -3.84843 -0.75636
O 2.27141 1.70036 -0.55737
H 2.32207 0.94952 -1.1671
H 2.9697 1.47569 0.07762
O 4.36239 0.17666 0.6417
H 5.24375 0.47088 0.37267
H 4.50365 -0.28493 1.47963
O -0.16411652 9.14497 0.10005304
H 0.79588348 9.14497 0.10005304
H -0.40448133 10.07439173 0.10005304
O -3.67171515 7.96552518 3.31330071
H -2.71171515 7.96552518 3.31330071
H -3.91207995 8.89494691 3.31330071
O 0.37359606 6.3268812 -6.02690453
H 1.33359606 6.3268812 -6.02690453
H 0.13323126 7.25630294 -6.02690453
O 4.25753566 5.10978027 5.86731532
H 5.21753566 5.10978027 5.86731532
H 4.01717085 6.039202 5.86731532
O -8.4514727 4.04160858 -1.36586358
H -7.4914727 4.04160858 -1.36586358
H -8.69183751 4.97103031 -1.36586358
O 7.398457 2.72179413 -4.7106372
H 8.358457 2.72179413 -4.7106372
H 7.1580922 3.65121586 -4.7106372
O -2.24079114 1.20415733 7.82517912
H -1.28079114 1.20415733 7.82517912
H -2.48115595 2.13357907 7.82517912
O -3.85364593 0.04954565 -7.00391133
H -2.89364593 0.04954565 -7.00391133
H -4.09401074 0.97896739 -7.00391133
O 9.18852649 -1.38759598 3.51562327
H 10.14852649 -1.38759598 3.51562327
H 8.94816169 -0.45817424 3.51562327
O -9.14244834 -2.84636416 3.8061779
H -8.18244834 -2.84636416 3.8061779
H -9.38281315 -1.91694243 3.8061779
O 3.06270858 -3.56171306 -6.79548478
H 4.02270858 -3.56171306 -6.79548478
H 2.82234378 -2.63229132 -6.79548478
O 1.83693291 -4.60607447 6.47971397
H 2.79693291 -4.60607447 6.47971397
H 1.59656811 -3.67665273 6.47971397
O -5.6564508 -6.42932348 -3.08286694
H -4.6964508 -6.42932348 -3.08286694
H -5.8968156 -5.49990174 -3.08286694
O 4.30334987 -7.56230841 -0.88210691
H 5.26334987 -7.56230841 -0.88210691
H 4.06298507 -6.63288668 -0.88210691
O -0.16411652 -8.84843 0.10005304
H 0.79588348 -8.84843 0.10005304
H -0.40448133 -7.91900827 0.10005304
*
