%oldchk=Gau-1273310.chk
%nproc=24
%mem=24GB
#p opt=addredundant scrf=(cpcm,solvent=water) empiricaldispersion=GD3 guess=read geom=check
M062X/def2svp

Title Card Required

1 2

