!opt GFN2-XTB alpb(water)
%pal nprocs 8 end
%maxcore 2000
%geom Constraints {
C 0:91 C
}
 end
 end
* xyz 1 2
N -0.73655527134968 0.35423145871371 0.34797901608015
C 0.30237307960561 0.414322164198 1.25130094257906
C 1.12628750663892 1.66918946611099 1.40633242393414
H 1.25699869387008 -0.69600661441385 0.33406128468892
H 0.08559425773302 -0.12320803497203 2.18403681737668
C 2.41058830880292 1.40860113765358 2.18652980444682
H 1.38741281883297 2.08248865512314 0.42161984608121
H 0.52579881552222 2.44000386144721 1.92828665819616
H 2.96609108854113 2.33957534594156 2.36101523105916
H 2.19700105849049 0.95194278102033 3.16437638829273
H 3.06674193420436 0.72339603853253 1.62954676815801
C -0.64764572538118 1.00801952478683 -0.94738628196145
C -1.39293935850128 2.33931774821658 -1.0176195285943
H -1.04444367862414 0.31268173649868 -1.70483692189022
H 0.41755173657468 1.16339160885835 -1.17853884605896
C -1.23489349117787 2.99917858727859 -2.38174327559733
H -2.45930587247293 2.16581041931613 -0.80064753034915
H -1.01104301914712 3.00071463750019 -0.22345290276489
H -1.77679826826069 3.95314293303239 -2.4305645107292
H -0.17516091365215 3.20052749870058 -2.59932234182118
H -1.62218431361007 2.34896253942271 -3.18041761521109
C -1.86941712791302 -0.51282361349721 0.62754355444408
C -2.83634806584611 0.06883152049146 1.65874035614152
H -1.49334280943928 -1.49084179112894 0.97933686115729
H -2.39254720649726 -0.7019880092044 -0.32084072832752
C -3.98994903893406 -0.88550071015641 1.94741324743413
H -2.27957360113941 0.27809164140742 2.58607106668728
H -3.21755263885482 1.03138782674985 1.28941996010523
H -4.67905192929538 -0.46447878225891 2.69128634436467
H -4.56591918798487 -1.09504341430955 1.03362745126224
H -3.61912691989646 -1.84621684939673 2.33584804190206
O 1.64726314577564 -1.37630021451048 -0.34346702697097
H 0.98103323022964 -2.22741261413554 -0.38557619409155
H 2.59601970174036 -1.55980862712135 -0.08181383890196
O -1.60055688685831 -2.10812729893218 -2.28644169733521
H -1.24455421635385 -2.03246054310977 -3.18190483794014
H -2.50685400082243 -2.42409982477674 -2.40195922921178
O -0.02160237028663 -3.14432907857523 -0.4516102992697
H -0.65154645215604 -2.8566503718745 -1.16652812216697
H 0.25555187718825 -4.04668573683765 -0.65985411487719
O 3.01088019464673 0.99361884343167 -1.18637669999963
H 2.51122609752358 0.3378832534086 -1.68671833293324
H 3.58685134490394 0.44406830471594 -0.63442105859414
O 4.16265892153237 -1.30607719712047 0.26336477161099
H 4.82061640002322 -1.76517988134367 -0.27848804052154
H 4.44150219183 -1.44578021183833 1.17976316913968
O -1.24573109990356 6.12799081251756 1.49284555996642
H -0.57872127527293 6.63468501997118 1.01905577793275
H -2.10377577184124 6.48296517221718 1.24528123380869
O -0.93507671112166 3.55581176422008 2.64297690179668
H -1.05229411987102 4.42484600355952 2.22910860062975
H -1.00293087135788 3.7053289708859 3.58938548083128
O 1.77279376298719 4.52185142383468 -3.56626791763446
H 2.36875729891599 5.02503934216907 -3.00362786511711
H 1.68537863537773 5.00405309399598 -4.39186245529794
O 4.03355666920518 4.40451349052116 2.85597876872022
H 4.70492404419178 4.57931589026675 3.52073307308892
H 3.71263537236562 5.2549266228735 2.54166784176151
O -3.66899285172449 5.65128155475773 -3.05938377210116
H -4.59888379578222 5.49738094466076 -2.86736413158888
H -3.62940483745525 6.13779227118144 -3.88790594118991
O 4.5826543415067 0.16696923795633 -3.36484228579458
H 4.88955239263016 0.72276970076132 -4.08167247460134
H 4.19537320405482 0.75464788918995 -2.68797462162083
O -2.94147567964062 -0.52689599797677 5.1689776085417
H -3.14563375606747 0.22682740196508 5.7294704679056
H -3.57397617007146 -1.21554376873274 5.38715894477122
O -0.95172533537975 -1.55266433761192 -4.97167167321203
H -0.13105602553344 -1.27240883247955 -5.38833216252194
H -1.65283410775756 -1.44350467132377 -5.61770731629601
O 4.87150026491614 -1.81286140040444 2.90450333663751
H 4.41254729743154 -2.48379137984965 3.41789881786739
H 5.54395824741236 -1.42272016016009 3.46706907745915
O -5.03854301498149 -1.94422949200265 0.97955422673572
H -2.93767127566898 -4.11748078694386 2.12754270673809
H -8.65992191865251 0.61648244002239 4.82124754534852
O 3.86425728641786 -2.34505261756542 -2.32870386253318
H 4.23927088629518 -1.61393943486788 -2.84178869707759
H 2.93818133276447 -2.10948961841867 -2.18566882752393
O -0.52230832847598 -1.18396767398586 3.77648020063166
H -0.13541673439086 -1.95728179587901 4.1940341664766
H -1.30181821357306 -0.94960993726678 4.29608838033074
O -3.19514457332106 -3.7610053158786 0.22898514290126
H -2.37489582955735 -3.25239191951424 0.11989026399704
H -3.92822352078574 -3.1310948321427 0.44520713817761
O 3.41066660030066 -5.03371144920955 -2.68019098835912
H 3.47818477952761 -5.21193301893275 -3.62064256660683
H 3.69888918463846 -4.10615252255528 -2.55157387383231
O 1.06149230187304 -5.4916281233576 -1.2985749137255
H 1.90129007894544 -5.34345459594806 -1.77754363782724
H 1.10385143887692 -6.37715628034855 -0.9363125707977
O 0.011020152351188514 8.741878134021588 0.0047286021416028876
H 0.9110201523511885 8.741878134021588 0.0047286021416028876
H -0.28199118666025247 9.592844852060974 0.0047286021416028876
O -2.330027990455948 8.120209342017114 2.1495752889591166
H -1.4300279904559483 8.120209342017114 2.1495752889591166
H -2.6230393294673893 8.9711760600565 2.1495752889591166
O 0.39634768419998184 7.5117155937906 -4.382622248361778
H 1.296347684199982 7.5117155937906 -4.382622248361778
H 0.10333634518854085 8.362682311829985 -4.382622248361778
O 3.2496026903025754 6.9502491237071435 4.229012589621867
H 4.149602690302576 6.9502491237071435 4.229012589621867
H 2.9565913512911344 7.8012158417465285 4.229012589621867
O -5.848852236902808 6.269945436181339 -1.0315986870184841
H -4.948852236902808 6.269945436181339 -1.0315986870184841
H -6.1418635759142495 7.120912154220724 -1.0315986870184841
O 5.564278056676604 5.727119954670736 -3.527699356281127
H 6.464278056676604 5.727119954670736 -3.527699356281127
H 5.271266717665163 6.578086672710121 -3.527699356281127
O -1.8134185310845847 5.10618526853851 6.79320131780043
H -0.9134185310845847 5.10618526853851 6.79320131780043
H -2.106429870096026 5.957151986577895 6.79320131780043
O -3.3817328364361305 4.471224002194769 -6.529347126353096
H -2.4817328364361306 4.471224002194769 -6.529347126353096
H -3.6747441754475716 5.322190720234154 -6.529347126353096
O 7.335254980728511 3.9295770012638016 2.679527223276406
H 8.235254980728511 3.9295770012638016 2.679527223276406
H 7.04224364171707 4.780543719303187 2.679527223276406
O -7.33187147968673 3.2784418093776293 3.0367532173816927
H -6.43187147968673 3.2784418093776293 3.0367532173816927
H -7.624882818698171 4.129408527417015 3.0367532173816927
O 3.4901188675796875 2.6998209409500045 -7.427916788541262
H 4.390118867579687 2.6998209409500045 -7.427916788541262
H 3.1971075285682464 3.55078765898939 -7.427916788541262
O 2.5304480969829366 2.113593285300988 8.035887459066446
H 3.4304480969829365 2.113593285300988 8.035887459066446
H 2.2374367579714955 2.964560003340373 8.035887459066446
O -7.2603563051526185 1.4935151429117821 -4.209427604340495
H -6.360356305152618 1.4935151429117821 -4.209427604340495
H -7.55336764416406 2.3444818609511673 -4.209427604340495
O 8.433285230064532 0.916952077737121 -1.846585342640225
H 9.333285230064533 0.916952077737121 -1.846585342640225
H 8.140273891053091 1.7679187957765061 -1.846585342640225
O -4.918057649251511 0.3172818558784577 7.01814916432065
H -4.018057649251511 0.3172818558784577 7.01814916432065
H -5.211068988262952 1.1682485739178428 7.01814916432065
O -1.084865248202892 -0.27264152414543447 -8.463331799003127
H -0.18486524820289196 -0.27264152414543447 -8.463331799003127
H -1.377876587214333 0.5783251938939507 -8.463331799003127
O 6.593185859020076 -0.8748639650250627 5.551939178877104
H 7.493185859020076 -0.8748639650250627 5.551939178877104
H 6.3001745200086345 -0.023897246985677523 5.551939178877104
O -8.349905853520587 -1.442330222444189 0.3513935017604255
H -7.449905853520587 -1.442330222444189 0.3513935017604255
H -8.642917192532028 -0.5913635044048038 0.3513935017604255
O 5.9193444365353125 -2.0515217214521573 -5.873185065753937
H 6.819344436535313 -2.0515217214521573 -5.873185065753937
H 5.6263330975238715 -1.200555003412772 -5.873185065753937
O -0.36431585294564267 -2.6401294692736954 8.14952179985773
H 0.5356841470543574 -2.6401294692736954 8.14952179985773
H -0.6573271919570837 -1.7891627512343102 8.14952179985773
O -5.011848530249014 -3.1921153954085146 -6.015981052119678
H -4.111848530249014 -3.1921153954085146 -6.015981052119678
H -5.304859869260455 -2.3411486773691292 -6.015981052119678
O 7.6317958846267215 -3.8344706320013042 1.0304021060700674
H 8.531795884626721 -3.8344706320013042 1.0304021060700674
H 7.3387845456152805 -2.9835039139619193 1.0304021060700674
O -5.949928457412176 -4.367456450591398 4.154478212377642
H -5.049928457412175 -4.367456450591398 4.154478212377642
H -6.242939796423617 -3.516489732552013 4.154478212377642
O 1.524883529976478 -4.961907452739047 -6.715314706617307
H 2.424883529976478 -4.961907452739047 -6.715314706617307
H 1.231872190965037 -4.110940734699662 -6.715314706617307
O 3.225291231042066 -5.58221218396239 5.6121417717565345
H 4.125291231042066 -5.58221218396239 5.6121417717565345
H 2.932279892030625 -4.731245465923005 5.6121417717565345
O -5.534666277563968 -6.091246781865059 -1.7642323252023575
H -4.6346662775639675 -6.091246781865059 -1.7642323252023575
H -5.827677616575409 -5.240280063825674 -1.7642323252023575
O 4.723940951476411 -6.7352597704474135 -2.171206829319503
H 5.623940951476412 -6.7352597704474135 -2.171206829319503
H 4.43092961246497 -5.884293052408029 -2.171206829319503
O -1.646087517984605 -7.2876641410580785 3.9701924854824733
H -0.746087517984605 -7.2876641410580785 3.9701924854824733
H -1.9390988569960461 -6.4366974230186935 3.9701924854824733
O -1.0305943571332095 -7.845895955801604 -2.8967089022490073
H -0.13059435713320944 -7.845895955801604 -2.8967089022490073
H -1.3236056961446505 -6.994929237762219 -2.8967089022490073
O 0.013261025640233917 -8.439574234521153 0.005690131337930018
H 0.9132610256402339 -8.439574234521153 0.005690131337930018
H -0.2797503133712071 -7.588607516481768 0.005690131337930018
*
