!opt GFN2-XTB alpb(water)
%pal nprocs 8 end
%maxcore 2000
%geom Constraints {
C 0:45 C
}
 end
 end
* xyz 1 2
N -0.73651 0.35423 0.34792
C 0.30113 0.41648 1.25266
C 1.12651 1.66909 1.40638
H 1.25731 -0.69542 0.33346
H 0.08668 -0.12636 2.18292
C 2.41047 1.40834 2.18634
H 1.38724 2.08235 0.42154
H 0.5258 2.44 1.92824
H 2.96612 2.33959 2.36107
H 2.197 0.95214 3.1646
H 3.06671 0.72342 1.62954
C -0.64765 1.00802 -0.94733
C -1.39291 2.33931 -1.01759
H -1.04446 0.31269 -1.70485
H 0.41765 1.16347 -1.17854
C -1.23489 2.99919 -2.38175
H -2.45931 2.16581 -0.80065
H -1.01105 3.00073 -0.22341
H -1.7768 3.95314 -2.43057
H -0.17516 3.20053 -2.59932
H -1.62219 2.34896 -3.18042
C -1.86939 -0.5128 0.62747
C -2.83606 0.06661 1.6591
H -1.49335 -1.49082 0.97934
H -2.39255 -0.70198 -0.32084
C -3.98975 -0.88576 1.94734
H -2.28014 0.28135 2.58581
H -3.21754 1.03137 1.28941
H -4.67909 -0.46442 2.69127
H -4.56601 -1.09495 1.03366
H -3.61913 -1.84619 2.33586
O 1.64728 -1.37674 -0.34313
H 0.98096 -2.22737 -0.38556
H 2.59598 -1.55981 -0.08174
O -1.6004 -2.1081 -2.28613
H -1.2447 -2.03248 -3.18199
H -2.50685 -2.42411 -2.40213
O -0.02156 -3.14426 -0.45164
H -0.65153 -2.85669 -1.16661
H 0.25551 -4.04672 -0.65984
O 3.01121 0.99397 -1.18634
H 2.5109 0.33745 -1.68688
H 3.58685 0.44414 -0.63429
O 4.16268 -1.30602 0.26331
H 4.8206 -1.76522 -0.27848
H 4.44152 -1.4458 1.17976
O 0.003841857717151273 5.163483354500445 -0.0016465290447953626
H 0.9038418577171513 5.163483354500445 -0.0016465290447953626
H -0.2891694812942897 6.01445007253983 -0.0016465290447953626
O -1.9772758545339935 4.470031438681644 1.8138173345919033
H -1.0772758545339935 4.470031438681644 1.8138173345919033
H -2.2702871935454345 5.320998156721029 1.8138173345919033
O 0.31412478441652986 3.6392500275958493 -3.5546504872498823
H 1.21412478441653 3.6392500275958493 -3.5546504872498823
H 0.02111344540508886 4.490216745635235 -3.5546504872498823
O 2.549529207892953 2.913329739585456 3.3213524325671417
H 3.4495292078929527 2.913329739585456 3.3213524325671417
H 2.2565178688815117 3.764296457624841 3.3213524325671417
O -4.636088238447208 2.231946864733503 -0.8230864693820489
H -3.736088238447208 2.231946864733503 -0.8230864693820489
H -4.929099577458649 3.082913582772888 -0.8230864693820489
O 4.029886130667494 1.4243621777158946 -2.5635587977007384
H 4.929886130667494 1.4243621777158946 -2.5635587977007384
H 3.736874791656053 2.2753288957552797 -2.5635587977007384
O -1.324585659850285 0.7357406773700325 4.940357972015625
H -0.42458565985028496 0.7357406773700325 4.940357972015625
H -1.617596998861726 1.5867073954094177 4.940357972015625
O -2.3426438844953625 -0.0014836779943260825 -4.515351417457472
H -1.4426438844953626 -0.0014836779943260825 -4.515351417457472
H -2.6356552235068036 0.849483040045059 -4.515351417457472
O 4.625985367216127 -0.7105181048995594 1.6898344628264608
H 5.525985367216127 -0.7105181048995594 1.6898344628264608
H 4.332974028204686 0.14044861313982582 1.6898344628264608
O -4.582577408777748 -1.4824428840891255 1.8915564346690465
H -3.6825774087777483 -1.4824428840891255 1.8915564346690465
H -4.875588747789189 -0.6314761660497403 1.8915564346690465
O 1.8980304190624961 -2.124518103162337 -4.057604802533533
H 2.798030419062496 -2.124518103162337 -4.057604802533533
H 1.605019080051055 -1.2735513851229519 -4.057604802533533
O 1.2385596174784328 -2.880182709998062 3.945452304699341
H 2.1385596174784327 -2.880182709998062 3.945452304699341
H 0.9455482784669917 -2.0292159919586767 3.945452304699341
O -3.0678934592851492 -3.6220131660380908 -1.77951764358086
H -2.1678934592851493 -3.6220131660380908 -1.77951764358086
H -3.3609047982965903 -2.771046447998706 -1.77951764358086
O 2.486063564509684 -4.237098809933338 -0.5462859653665153
H 3.386063564509684 -4.237098809933338 -0.5462859653665153
H 2.193052225498243 -3.386132091893953 -0.5462859653665153
O -0.00015575517207720713 -4.99314225533014 6.675297045939665e-05
H 0.8998442448279228 -4.99314225533014 6.675297045939665e-05
H -0.2931670941835182 -4.142175537290755 6.675297045939665e-05
*
