%chk=preopt.chk
%nproc=24
%mem=24GB
#p opt=(addredundant,nolinear) scrf=(cpcm,solvent=water) empiricaldispersion=GD3
M062X/def2svp

Title Card Required

1 2
N  -0.736511  0.354217  0.347874
C  0.301128  0.416479  1.252663
C  1.126511  1.669089  1.406380
H  1.257315  -0.695415  0.333458
H  0.086680  -0.126360  2.182920
C  2.410470  1.408340  2.186340
H  1.387240  2.082350  0.421540
H  0.525801  2.439999  1.928240
H  2.966120  2.339590  2.361070
H  2.197000  0.952140  3.164600
H  3.066710  0.723420  1.629540
C  -0.647649  1.008020  -0.947329
C  -1.392911  2.339311  -1.017592
H  -1.044460  0.312690  -1.704849
H  0.417649  1.163471  -1.178539
C  -1.234889  2.999191  -2.381750
H  -2.459309  2.165807  -0.800651
H  -1.011050  3.000730  -0.223410
H  -1.776800  3.953139  -2.430571
H  -0.175160  3.200530  -2.599320
H  -1.622190  2.348960  -3.180420
C  -1.869394  -0.512799  0.627468
C  -2.836053  0.066609  1.659104
H  -1.493350  -1.490820  0.979340
H  -2.392550  -0.701980  -0.320840
C  -3.989751  -0.885760  1.947340
H  -2.280140  0.281354  2.585797
H  -3.217541  1.031370  1.289410
H  -4.679094  -0.464416  2.691259
H  -4.566010  -1.094950  1.033660
H  -3.619130  -1.846192  2.335858
O  1.647274  -1.376745  -0.343129
H  0.980960  -2.227370  -0.385559
H  2.595980  -1.559809  -0.081739
O  -1.600400  -2.108100  -2.286129
H  -1.244700  -2.032480  -3.181990
H  -2.506850  -2.424110  -2.402130
O  -0.021557  -3.144259  -0.451637
H  -0.651529  -2.856691  -1.166612
H  0.255506  -4.046720  -0.659844
O  3.011210  0.993970  -1.186341
H  2.510900  0.337450  -1.686880
H  3.586849  0.444140  -0.634289
O  4.162679  -1.306021  0.263310
H  4.820600  -1.765220  -0.278480
H  4.441520  -1.445800  1.179760
O  -0.115498  8.953134  0.049497
H  0.844502  8.953142  0.049502
H  -0.355866  9.882550  0.049484
O  -3.734829  6.159018  3.365088
H  -2.774783  6.159068  3.365067
H  -3.975108  7.088465  3.365043
O  0.544721  5.130952  -7.473337
H  1.504721  5.130953  -7.473339
H  0.304360  6.060378  -7.473342
O  5.189971  3.168141  6.969542
H  6.149973  3.168147  6.969544
H  4.949598  4.097556  6.969538
O  -8.975747  1.091208  -1.517757
H  -8.015743  1.091208  -1.517746
H  -9.216103  2.020636  -1.517759
O  7.867015  -0.972517  -5.028327
H  8.826997  -0.972510  -5.028310
H  7.626632  -0.043088  -5.028310
O  -2.246102  -2.816559  7.975210
H  -1.286239  -2.816603  7.975736
H  -2.486723  -1.887209  7.976282
O  -3.610429  -4.981197  -6.679790
H  -2.650432  -4.981202  -6.679787
H  -3.850799  -4.051782  -6.679785
O  5.365072  -7.134724  2.050995
H  6.325066  -7.134725  2.050992
H  5.124696  -6.205304  2.050992
O  -0.115496  -9.046726  0.049495
H  0.844506  -9.046716  0.049498
H  -0.355859  -8.117298  0.049504
O  1.061869  13.911718  1.959479
H  1.891933  14.381832  2.084924
H  0.364788  14.573660  1.917598
O  -0.589854  9.994253  5.048696
H  0.311115  10.088215  4.723845
H  -1.122412  10.654073  4.593361
O  3.491496  8.895152  -9.493118
H  3.330818  8.539969  -10.373042
H  3.806026  9.797212  -9.604859
O  8.263693  7.214227  8.156061
H  8.594484  6.888436  8.998921
H  8.276603  8.175290  8.199143
O  -10.839403  6.352479  -2.170606
H  -11.719789  6.002943  -2.000538
H  -10.948874  7.256495  -2.481164
O  11.035816  3.212097  -4.991660
H  11.982170  3.305788  -5.137095
H  10.645707  4.086274  -5.090098
O  -3.036558  2.706967  7.730731
H  -3.376995  3.308335  8.399716
H  -3.193984  3.118770  6.874898
O  -1.011175  -0.362924  -7.521990
H  -0.983045  -0.402220  -8.482037
H  -0.692615  0.508667  -7.266425
O  8.568054  -2.974446  2.464260
H  9.415785  -3.427893  2.467865
H  8.638567  -2.236643  3.077973
O  -10.398640  -2.508303  2.016127
H  -9.495735  -2.191751  1.907617
H  -10.929012  -2.076323  1.339088
O  4.003249  -5.519853  -2.857973
H  4.333751  -6.403692  -2.674669
H  4.538413  -5.154805  -3.568698
O  1.703759  -3.811436  4.215160
H  2.036450  -4.294982  4.975873
H  0.816536  -4.139339  4.036761
O  -5.498896  -8.773997  -3.630874
H  -4.594990  -8.768813  -3.962531
H  -5.995111  -8.141010  -4.159595
O  5.153837  -10.895272  -1.844212
H  4.932648  -11.793687  -2.106359
H  5.072461  -10.855280  -0.885645
O  1.602832  -13.847668  0.486502
H  0.988777  -13.703107  -0.240468
H  1.170948  -13.529486  1.285546

X 47 F
X 48 F
X 49 F
X 50 F
X 51 F
X 52 F
X 53 F
X 54 F
X 55 F
X 56 F
X 57 F
X 58 F
X 59 F
X 60 F
X 61 F
X 62 F
X 63 F
X 64 F
X 65 F
X 66 F
X 67 F
X 68 F
X 69 F
X 70 F
X 71 F
X 72 F
X 73 F
X 74 F
X 75 F
X 76 F
X 77 F
X 78 F
X 79 F
X 80 F
X 81 F
X 82 F
X 83 F
X 84 F
X 85 F
X 86 F
X 87 F
X 88 F
X 89 F
X 90 F
X 91 F
X 92 F
X 93 F
X 94 F
X 95 F
X 96 F
X 97 F
X 98 F
X 99 F
X 100 F
X 101 F
X 102 F
X 103 F
X 104 F
X 105 F
X 106 F
X 107 F
X 108 F
X 109 F
X 110 F
X 111 F
X 112 F
X 113 F
X 114 F
X 115 F
X 116 F
X 117 F
X 118 F
X 119 F
X 120 F
X 121 F

