%nproc=24
%mem=24GB
#p opt=addredundant scrf=(cpcm,solvent=water) empiricaldispersion=GD3
M062X/def2svp

Title Card Required

1 2
N  -0.736560  0.354259  0.347899
C  0.301123  0.416443  1.252655
C  1.126526  1.669336  1.406456
H  1.257459  -0.695339  0.333444
H  0.086689  -0.126380  2.182955
C  2.410435  1.408027  2.186182
H  1.387218  2.082293  0.421527
H  0.525802  2.439994  1.928207
H  2.966073  2.339647  2.361070
H  2.197017  0.952143  3.164722
H  3.066775  0.723522  1.629551
C  -0.647664  1.007997  -0.947324
C  -1.392842  2.339397  -1.017500
H  -1.044454  0.312690  -1.704848
H  0.417659  1.163484  -1.178539
C  -1.234901  2.999066  -2.382067
H  -2.459311  2.165751  -0.800725
H  -1.011049  3.000723  -0.223413
H  -1.776855  3.953178  -2.430385
H  -0.175164  3.200547  -2.599275
H  -1.622170  2.348982  -3.180358
C  -1.869388  -0.512794  0.627471
C  -2.836065  0.066577  1.659101
H  -1.493350  -1.490823  0.979342
H  -2.392549  -0.701981  -0.320841
C  -3.989759  -0.885733  1.947335
H  -2.280153  0.281364  2.585791
H  -3.217529  1.031416  1.289424
H  -4.679091  -0.464428  2.691270
H  -4.566010  -1.094955  1.033657
H  -3.619127  -1.846193  2.335861
O  1.647119  -1.376839  -0.343077
H  0.980971  -2.227363  -0.385639
H  2.595995  -1.559817  -0.081729
O  -1.600513  -2.108065  -2.285964
H  -1.244674  -2.032533  -3.182021
H  -2.506859  -2.424086  -2.402150
O  -0.021752  -3.144203  -0.451410
H  -0.651194  -2.856736  -1.166931
H  0.255484  -4.046758  -0.659826
O  3.011233  0.993974  -1.186346
H  2.510912  0.337461  -1.686903
H  3.586815  0.444125  -0.634262
O  4.162695  -1.305998  0.263377
H  4.820554  -1.765199  -0.278556
H  4.441558  -1.445816  1.179763
O  -7.353055  5.117433  -3.333286
H  -6.444245  5.431386  -3.397318
H  -7.860879  5.588692  -4.000586
O  -4.575308  3.116481  0.875734
H  -4.446057  3.903272  1.412517
H  -5.469060  3.168802  0.524467
O  3.875475  2.473575  -6.397428
H  3.565566  2.708152  -5.516672
H  3.199137  2.756006  -7.019506
O  6.321667  -0.583877  5.431986
H  6.365710  0.299632  5.053366
H  5.873182  -0.506628  6.278964
O  -6.605098  -0.009816  -3.728912
H  -5.956202  0.580362  -3.330388
H  -7.467517  0.395032  -3.602956
O  7.515063  -0.830448  -3.929177
H  8.217524  -0.763620  -4.581778
H  7.051482  0.014483  -3.927197
O  1.214664  0.512746  5.675313
H  1.222528  1.312414  6.207752
H  0.653866  -0.122543  6.131637
O  -1.913375  1.725273  -5.744134
H  -1.218484  1.379836  -6.313863
H  -2.687572  1.867969  -6.297592
O  7.957252  -4.465996  2.073988
H  8.912585  -4.404430  2.166748
H  7.578417  -4.348720  2.951833
O  -6.253061  -5.066676  -2.119172
H  -6.760816  -5.298224  -1.337712
H  -6.844600  -4.611190  -2.724509
O  2.848148  -3.018496  -5.134682
H  3.427542  -3.422352  -4.479432
H  3.285867  -2.218577  -5.442911
O  2.590099  -4.533037  4.129934
H  2.934572  -3.901798  4.768021
H  1.745088  -4.189561  3.820195
O  -1.196706  -6.553410  -4.371702
H  -0.450502  -6.295105  -4.920466
H  -1.691273  -7.219912  -4.855010
O  4.235691  -6.423584  -0.828978
H  4.146237  -6.409847  0.129818
H  5.166174  -6.572794  -1.020003
O  -1.009980  -8.695496  0.585681
H  -0.113473  -8.688740  0.234950
H  -1.572877  -8.269200  -0.068052
O  0.183522  15.588692  -0.524105
H  1.143522  15.588692  -0.524105
H  -0.056843  16.518114  -0.524105
O  -4.455279  15.268132  3.725417
H  -3.495279  15.268132  3.725417
H  -4.695643  16.197553  3.725417
O  0.931885  13.778941  -9.051316
H  1.891885  13.778941  -9.051316
H  0.691520  14.708363  -9.051316
O  6.055490  11.784692  7.134837
H  7.015490  11.784692  7.134837
H  5.815125  12.714114  7.134837
O  -13.734113  14.058483  -2.985939
H  -12.774113  14.058483  -2.985939
H  -13.974478  14.987905  -2.985939
O  10.939684  10.273491  -7.366295
H  11.899684  10.273491  -7.366295
H  10.699319  11.202913  -7.366295
O  -3.239685  8.759256  12.210054
H  -2.279685  8.759256  12.210054
H  -3.480049  9.688678  12.210054
O  -7.354174  9.101959  -15.037479
H  -6.394174  9.101959  -15.037479
H  -7.594538  10.031381  -15.037479
O  14.781765  7.011834  4.807150
H  15.741765  7.011834  4.807150
H  14.541400  7.941256  4.807150
O  -15.270507  6.071946  5.855094
H  -14.310507  6.071946  5.855094
H  -15.510872  7.001367  5.855094
O  7.398029  4.775030  -15.941088
H  8.358029  4.775030  -15.941088
H  7.157665  5.704452  -15.941088
O  5.416631  3.567333  16.159870
H  6.376631  3.567333  16.159870
H  5.176266  4.496755  16.159870
O  -16.581414  2.609708  -10.239728
H  -15.621414  2.609708  -10.239728
H  -16.821778  3.539130  -10.239728
O  18.323135  1.149797  -4.512048
H  19.283135  1.149797  -4.512048
H  18.082770  2.079219  -4.512048
O  -8.688165  -0.249660  12.094958
H  -7.728165  -0.249660  12.094958
H  -8.928530  0.679762  12.094958
O  -1.871372  -1.333602  -16.381584
H  -0.911372  -1.333602  -16.381584
H  -2.111737  -0.404180  -16.381584
O  14.434957  -2.720348  11.487019
H  15.394957  -2.720348  11.487019
H  14.194592  -1.790927  11.487019
O  -17.118490  -3.812938  0.191388
H  -16.158490  -3.812938  0.191388
H  -17.358854  -2.883516  0.191388
O  12.771202  -5.199014  -13.050527
H  13.731202  -5.199014  -13.050527
H  12.530837  -4.269592  -13.050527
O  -0.524538  -5.786200  14.788340
H  0.435462  -5.786200  14.788340
H  -0.764902  -4.856779  14.788340
O  -10.002546  -7.299258  -12.730419
H  -9.042546  -7.299258  -12.730419
H  -10.242911  -6.369836  -12.730419
O  17.616349  -9.602986  1.821457
H  18.576349  -9.602986  1.821457
H  17.375984  -8.673564  1.821457
O  -11.630739  -9.480290  7.695950
H  -10.670739  -9.480290  7.695950
H  -11.871104  -8.550868  7.695950
O  3.182168  -10.667581  -13.853388
H  4.142168  -10.667581  -13.853388
H  2.941804  -9.738159  -13.853388
O  6.725120  -12.192333  10.891856
H  7.685120  -12.192333  10.891856
H  6.484755  -11.262911  10.891856
O  -11.645389  -13.818998  -4.297850
H  -10.685389  -13.818998  -4.297850
H  -11.885754  -12.889577  -4.297850
O  9.845586  -14.640975  -4.988223
H  10.805586  -14.640975  -4.988223
H  9.605221  -13.711553  -4.988223
O  -3.254951  -15.932245  7.691951
H  -2.294951  -15.932245  7.691951
H  -3.495316  -15.002823  7.691951
O  -2.004216  -17.273107  -6.606574
H  -1.044216  -17.273107  -6.606574
H  -2.244581  -16.343685  -6.606574
O  0.183522  -18.695496  -0.524105
H  1.143522  -18.695496  -0.524105
H  -0.056843  -17.766074  -0.524105

X 47 F
X 48 F
X 49 F
X 50 F
X 51 F
X 52 F
X 53 F
X 54 F
X 55 F
X 56 F
X 57 F
X 58 F
X 59 F
X 60 F
X 61 F
X 62 F
X 63 F
X 64 F
X 65 F
X 66 F
X 67 F
X 68 F
X 69 F
X 70 F
X 71 F
X 72 F
X 73 F
X 74 F
X 75 F
X 76 F
X 77 F
X 78 F
X 79 F
X 80 F
X 81 F
X 82 F
X 83 F
X 84 F
X 85 F
X 86 F
X 87 F
X 88 F
X 89 F
X 90 F
X 91 F
X 92 F
X 93 F
X 94 F
X 95 F
X 96 F
X 97 F
X 98 F
X 99 F
X 100 F
X 101 F
X 102 F
X 103 F
X 104 F
X 105 F
X 106 F
X 107 F
X 108 F
X 109 F
X 110 F
X 111 F
X 112 F
X 113 F
X 114 F
X 115 F
X 116 F
X 117 F
X 118 F
X 119 F
X 120 F
X 121 F
X 122 F
X 123 F
X 124 F
X 125 F
X 126 F
X 127 F
X 128 F
X 129 F
X 130 F
X 131 F
X 132 F
X 133 F
X 134 F
X 135 F
X 136 F
X 137 F
X 138 F
X 139 F
X 140 F
X 141 F
X 142 F
X 143 F
X 144 F
X 145 F
X 146 F
X 147 F
X 148 F
X 149 F
X 150 F
X 151 F
X 152 F
X 153 F
X 154 F
X 155 F
X 156 F
X 157 F
X 158 F
X 159 F
X 160 F
X 161 F
X 162 F
X 163 F
X 164 F
X 165 F
X 166 F
X 167 F
X 168 F
X 169 F
X 170 F
X 171 F
X 172 F
X 173 F
X 174 F
X 175 F
X 176 F
X 177 F
X 178 F
X 179 F
X 180 F
X 181 F

