%nproc=12
%mem=12GB
#p opt scrf=(cpcm,solvent=water) empiricaldispersion=GD3

Title Card Required

1 2
N  -0.928063  0.013073  -0.083469
C  0.164527  -0.234149  0.822953
C  0.283092  0.838130  1.912002
H  1.082188  -0.218589  0.208653
H  0.047043  -1.241065  1.240793
C  1.485429  0.551958  2.801648
H  0.400073  1.822387  1.435948
H  -0.644203  0.855355  2.505222
H  1.559274  1.300276  3.601278
H  1.409557  -0.440375  3.268304
H  2.413652  0.587450  2.214541
C  -0.977354  1.246404  -0.834783
C  -2.093088  2.178565  -0.337327
H  -1.157793  0.966121  -1.883336
H  0.010242  1.722201  -0.759635
C  -2.086348  3.477279  -1.134152
H  -3.065214  1.673882  -0.442250
H  -1.944295  2.385668  0.733300
H  -2.884395  4.144974  -0.785866
H  -1.127533  4.002579  -1.022702
H  -2.246231  3.281862  -2.204668
C  -1.975730  -0.968145  -0.217107
C  -2.852450  -1.041206  1.044743
H  -1.475791  -1.938744  -0.371886
H  -2.574903  -0.719177  -1.102698
C  -3.936204  -2.098081  0.875546
H  -2.218104  -1.282005  1.911248
H  -3.300787  -0.054643  1.232521
H  -4.557810  -2.155721  1.778383
H  -4.591438  -1.859390  0.025797
H  -3.495423  -3.089444  0.699503
O  2.770285  -1.130884  -1.243540
H  2.295407  -1.863504  -0.806796
H  3.420664  -0.806333  -0.593161
O  0.307493  -0.997480  -2.408485
H  1.265174  -0.836232  -2.318594
H  0.141702  -1.070976  -3.356885
O  0.725584  -2.907403  -0.542355
H  0.409947  -2.455182  -1.351132
H  0.719585  -3.848448  -0.756238
O  2.271415  1.700358  -0.557345
H  2.322030  0.949525  -1.167122
H  2.969701  1.475674  0.077620
O  4.362401  0.176699  0.641703
H  5.243775  0.470863  0.372652
H  4.503662  -0.284925  1.479663
O  -5.617801  6.676741  2.622776
H  -4.787651  7.051982  2.315458
H  -6.199043  7.411479  2.835865
O  -2.693632  2.509791  3.122544
H  -2.320261  3.280432  3.557274
H  -3.616422  2.470221  3.390295
O  -2.117256  2.998326  -4.664964
H  -1.317854  2.943128  -5.193425
H  -2.778312  3.452909  -5.193968
O  2.491362  2.701388  5.414672
H  3.157783  3.349781  5.170914
H  2.787074  2.281168  6.227865
O  -8.157851  2.236107  0.514152
H  -7.486855  2.924220  0.454501
H  -8.732909  2.468490  1.248270
O  6.476988  3.276876  -3.759523
H  6.909588  4.129611  -3.665767
H  5.613888  3.354049  -3.340429
O  -2.009688  -0.419318  7.343328
H  -1.315156  0.181441  7.051317
H  -2.438034  -0.750539  6.548071
O  -4.429497  -0.395335  -2.502469
H  -4.439122  -0.877359  -3.335895
H  -5.164830  0.222191  -2.537457
O  7.629974  1.614038  4.367426
H  7.716814  1.213020  5.237682
H  8.421856  2.138080  4.215781
O  -9.049960  -2.409239  -2.497451
H  -8.758874  -2.953852  -1.759185
H  -9.387113  -1.588516  -2.125556
O  3.508130  -0.459273  -6.626126
H  3.913720  -0.109133  -7.423817
H  4.097129  -0.246875  -5.894391
O  1.615999  -2.599986  4.501613
H  2.314074  -2.677149  5.156986
H  0.972346  -3.289364  4.692226
O  -3.609121  -5.610332  -2.361156
H  -3.041685  -5.312172  -3.079310
H  -4.516710  -5.513974  -2.662025
O  1.235126  -5.394858  -5.182664
H  2.004603  -5.929201  -4.963476
H  1.532142  -4.704115  -5.783581
O  0.270880  -8.570597  -0.563274
H  0.121617  -8.428957  -1.504680
H  -0.566467  -8.404077  -0.118495
O  -0.981517  15.555431  -0.904666
H  -0.103367  15.759991  -0.567866
H  -1.156372  16.164135  -1.629462
O  -3.084189  10.955345  0.475221
H  -2.512723  11.060220  -0.291675
H  -3.237787  11.834974  0.830581
O  -1.707630  8.125965  -4.126201
H  -0.944160  7.624166  -3.822232
H  -2.468057  7.808997  -3.628164
O  4.965260  13.516180  7.854104
H  5.912983  13.545827  8.020174
H  4.594533  14.341332  8.183828
O  -12.786860  12.451608  -1.574468
H  -12.286668  12.534180  -2.393340
H  -13.518963  13.074357  -1.629942
O  9.428097  12.570883  -6.513242
H  10.326477  12.414635  -6.820378
H  9.098594  13.340949  -6.988208
O  -5.547601  9.906728  12.510410
H  -4.767479  10.246423  12.959922
H  -6.224635  10.588949  12.565615
O  -3.193836  6.302108  -8.883870
H  -2.398315  6.738550  -8.564578
H  -3.930281  6.897662  -8.713564
O  14.517729  8.647674  8.368563
H  15.415566  8.332637  8.513062
H  14.480299  9.554459  8.690557
O  -14.873235  5.889981  4.541966
H  -14.057556  6.274558  4.879263
H  -15.462744  6.619236  4.326280
O  6.472371  5.100151  -14.724258
H  6.999990  4.722010  -15.434156
H  6.101067  5.925330  -15.052750
O  4.003146  2.709652  14.163136
H  4.751035  3.018566  14.682293
H  3.221176  3.165764  14.489986
O  -12.995050  1.708270  -8.949779
H  -12.281279  1.124741  -8.673616
H  -13.541993  1.877741  -8.175455
O  17.714851  3.068990  -1.109281
H  18.614585  2.759428  -1.255886
H  17.671120  3.977685  -1.424253
O  -5.546768  0.085366  11.650802
H  -4.946559  0.362393  10.948553
H  -6.371265  0.568163  11.525835
O  -2.973099  -1.375475  -12.245039
H  -2.275508  -1.346260  -12.909843
H  -3.463471  -0.554425  -12.321693
O  5.715135  0.303564  9.367913
H  5.275299  -0.550388  9.306423
H  5.448075  0.697056  10.204523
O  -16.319886  -6.566472  0.302497
H  -15.532683  -6.998277  -0.041355
H  -16.458890  -5.774894  -0.227397
O  10.642587  -2.654844  -11.271688
H  11.526498  -2.983512  -11.464261
H  10.593084  -1.757119  -11.613346
O  -3.120723  -4.544562  10.931059
H  -3.445001  -4.185708  11.760341
H  -3.488674  -3.993459  10.230709
O  -4.479920  -5.822862  -7.503696
H  -3.577815  -5.997568  -7.786563
H  -4.817825  -5.114892  -8.060104
O  13.818167  -4.964194  2.295230
H  14.493466  -5.574387  2.604851
H  14.149453  -4.073632  2.443524
O  -9.431191  -3.295552  6.033304
H  -8.941451  -4.115243  6.146955
H  -10.363742  -3.525017  5.988880
O  5.990771  -5.339674  -7.325583
H  6.895906  -5.655667  -7.398617
H  5.994724  -4.410644  -7.579486
O  1.860275  -3.694149  9.748773
H  1.573754  -4.361943  10.378036
H  1.115524  -3.099371  9.611975
O  -7.433567  -9.317325  -4.965213
H  -6.480785  -9.389772  -5.095024
H  -7.685869  -8.439433  -5.270099
O  9.672895  -5.850335  -0.769633
H  10.575905  -6.156188  -0.900722
H  9.651460  -5.407365  0.084489
O  -1.488389  -7.037570  5.992088
H  -0.719934  -7.600632  6.120920
H  -1.697081  -6.642202  6.841905
O  2.335309  -15.732180  -5.024346
H  2.739921  -16.036499  -4.205547
H  2.313795  -14.769907  -4.982634
O  3.403341  -12.702925  -0.883025
H  3.744933  -11.809564  -0.994313
H  2.566708  -12.624026  -0.413817

X 47 F
X 48 F
X 49 F
X 50 F
X 51 F
X 52 F
X 53 F
X 54 F
X 55 F
X 56 F
X 57 F
X 58 F
X 59 F
X 60 F
X 61 F
X 62 F
X 63 F
X 64 F
X 65 F
X 66 F
X 67 F
X 68 F
X 69 F
X 70 F
X 71 F
X 72 F
X 73 F
X 74 F
X 75 F
X 76 F
X 77 F
X 78 F
X 79 F
X 80 F
X 81 F
X 82 F
X 83 F
X 84 F
X 85 F
X 86 F
X 87 F
X 88 F
X 89 F
X 90 F
X 91 F
X 92 F
X 93 F
X 94 F
X 95 F
X 96 F
X 97 F
X 98 F
X 99 F
X 100 F
X 101 F
X 102 F
X 103 F
X 104 F
X 105 F
X 106 F
X 107 F
X 108 F
X 109 F
X 110 F
X 111 F
X 112 F
X 113 F
X 114 F
X 115 F
X 116 F
X 117 F
X 118 F
X 119 F
X 120 F
X 121 F
X 122 F
X 123 F
X 124 F
X 125 F
X 126 F
X 127 F
X 128 F
X 129 F
X 130 F
X 131 F
X 132 F
X 133 F
X 134 F
X 135 F
X 136 F
X 137 F
X 138 F
X 139 F
X 140 F
X 141 F
X 142 F
X 143 F
X 144 F
X 145 F
X 146 F
X 147 F
X 148 F
X 149 F
X 150 F
X 151 F
X 152 F
X 153 F
X 154 F
X 155 F
X 156 F
X 157 F
X 158 F
X 159 F
X 160 F
X 161 F
X 162 F
X 163 F
X 164 F
X 165 F
X 166 F
X 167 F
X 168 F
X 169 F
X 170 F
X 171 F
X 172 F
X 173 F
X 174 F
X 175 F
X 176 F
X 177 F
X 178 F
X 179 F
X 180 F
X 181 F
X 182 F

