%nproc=12
%mem=12GB
#p opt(addredundant) M062X/def2svp scrf=(cpcm,solvent=water) empiricaldispersion=GD3

Title Card Required

1 2
N  -0.162320  -0.913980  0.364380
C  -0.109250  -0.016500  -0.760370
C  0.855260  -0.473250  -1.865590
H  0.260273  1.413185  -0.134988
H  -1.130890  0.108530  -1.147980
C  1.109050  0.682460  -2.826260
H  1.806860  -0.807280  -1.425980
H  0.412700  -1.334790  -2.391680
H  1.753460  0.375120  -3.661480
H  0.164730  1.065020  -3.242900
H  1.605180  1.502400  -2.286360
C  1.037660  -1.189820  1.121100
C  1.488880  -2.651570  1.006820
H  0.802720  -0.940960  2.168550
H  1.824360  -0.511930  0.761630
C  2.801950  -2.850770  1.755630
H  0.710370  -3.321080  1.400980
H  1.647650  -2.904070  -0.052060
H  3.064970  -3.917340  1.773000
H  3.623170  -2.314960  1.257490
H  2.733850  -2.496210  2.795760
C  -1.424340  -1.497780  0.745130
C  -1.806780  -2.679230  -0.168160
H  -2.182010  -0.705120  0.630480
H  -1.377390  -1.814520  1.797640
C  -3.261910  -3.056330  0.087600
H  -1.660550  -2.400800  -1.224100
H  -1.141810  -3.532130  0.039670
H  -3.549530  -3.934420  -0.506180
H  -3.419170  -3.293390  1.150310
H  -3.923210  -2.221580  -0.186830
O  0.357900  2.766320  0.519900
H  -0.578590  2.844900  0.255450
H  0.896820  3.374630  -0.026630
O  -0.687940  1.048050  2.348610
H  -0.076120  1.734680  2.024830
H  -0.724340  1.162950  3.306410
O  -2.325450  2.132850  0.446960
H  -2.019700  1.705970  1.271590
H  -3.170900  2.590440  0.651630
O  2.840710  1.440300  0.062390
H  2.039980  1.653940  0.562020
H  2.946890  2.259090  -0.452160
O  2.302940  4.005990  -0.999290
H  2.822400  4.825520  -0.803910
H  2.075580  4.084350  -1.934770
O  -3.539810  0.396840  -1.373660
H  -4.119170  1.019070  -1.845690
H  -3.079200  0.975890  -0.737040
O  5.988530  -1.962040  -0.312620
H  6.268420  -1.056900  -0.481030
H  6.760380  -2.448090  -0.007920
O  3.584130  -2.993030  -1.531760
H  4.365500  -2.625870  -1.092940
H  3.893520  -3.735720  -2.057120
O  2.816360  -0.351360  5.678960
H  3.282010  0.435400  5.378050
H  3.349130  -0.747770  6.373700
O  3.265700  0.106920  -5.566380
H  2.918280  0.082050  -6.462670
H  3.986950  -0.528020  -5.523050
O  0.078520  -5.789290  0.602570
H  -0.048450  -6.453730  1.285720
H  0.348460  -6.255960  -0.193340
O  3.715860  6.295170  -0.634250
H  3.441590  6.878870  0.079860
H  4.668270  6.178620  -0.559060
O  -0.823580  -3.061930  -3.738280
H  -1.460560  -2.824540  -4.418710
H  -0.314500  -3.802810  -4.079380
O  -2.014910  -2.904620  3.942850
H  -2.751600  -2.522310  4.428860
H  -1.577090  -3.518020  4.540430
O  -4.833500  6.046520  0.427430
H  -5.090930  6.493670  -0.384430
H  -4.038730  6.480990  0.754470
O  -8.384880  -1.887150  -2.107260
H  -7.551730  -1.477750  -2.361920
H  -8.196910  -2.810640  -1.913870
O  -4.822280  3.234540  0.585410
H  -4.900340  4.211410  0.602350
H  -5.524660  2.870260  1.163440
O  8.135490  -3.499950  0.676340
H  8.022840  -3.756580  1.597580
H  8.313860  -4.303300  0.177050
O  4.626370  -5.068910  -3.331350
H  5.291830  -4.768380  -3.957730
H  3.996070  -5.604140  -3.822560
O  4.521810  1.791870  4.899540
H  4.279230  2.709090  4.739110
H  5.127900  1.531990  4.198060
O  6.751910  3.433900  -3.735950
H  6.041430  3.670570  -4.341440
H  6.420380  2.710200  -3.192730
O  -0.267670  -7.793610  2.637590
H  0.260430  -7.696340  3.436200
H  -1.135980  -8.111750  2.905310
O  2.878050  7.959480  1.474180
H  2.810350  8.914610  1.384790
H  2.118430  7.665770  1.987250
O  -2.803800  -2.449650  -5.709080
H  -2.798390  -1.564770  -6.087420
H  -3.678610  -2.591230  -5.334230
O  -1.639980  -0.165800  8.315120
H  -1.251140  0.605540  7.888850
H  -0.947010  -0.831480  8.372390
O  -0.903730  9.024390  -1.568040
H  -0.600660  9.662790  -2.220230
H  -0.568980  8.162980  -1.840000
O  -7.542820  -4.597450  -1.568150
H  -7.608780  -5.037600  -0.715010
H  -7.356790  -5.276040  -2.224880
O  -6.843300  2.032100  2.217770
H  -6.518960  1.563680  2.993530
H  -7.420860  1.424690  1.744190
O  -5.124920  2.737950  -2.151850
H  -6.065800  2.818400  -2.327400
H  -5.017150  2.849560  -1.188900

B 32 4 F
X 50 F
X 51 F
X 52 F
X 53 F
X 54 F
X 55 F
X 56 F
X 57 F
X 58 F
X 59 F
X 60 F
X 61 F
X 62 F
X 63 F
X 64 F
X 65 F
X 66 F
X 67 F
X 68 F
X 69 F
X 70 F
X 71 F
X 72 F
X 73 F
X 74 F
X 75 F
X 76 F
X 77 F
X 78 F
X 79 F
X 80 F
X 81 F
X 82 F
X 83 F
X 84 F
X 85 F
X 86 F
X 87 F
X 88 F
X 89 F
X 90 F
X 91 F
X 92 F
X 93 F
X 94 F
X 95 F
X 96 F
X 97 F
X 98 F
X 99 F
X 100 F
X 101 F
X 102 F
X 103 F
X 104 F
X 105 F
X 106 F
X 107 F
X 108 F
X 109 F
X 110 F
X 111 F
X 112 F
X 113 F
X 114 F
X 115 F
X 116 F
X 117 F
X 118 F

