!opt GFN2-XTB alpb(water)
%pal nprocs 8 end
%maxcore 2000
%geom Constraints {
C 0:45 C
}
 end
 end
* xyz 1 2
N -0.92806 0.01307 -0.08343
C 0.16453 -0.23408 0.82294
C 0.28304 0.83814 1.91208
H 1.0822 -0.21859 0.20862
H 0.04704 -1.24107 1.24079
C 1.4853 0.55198 2.80166
H 0.4001 1.82237 1.43598
H -0.64417 0.85535 2.50516
H 1.55927 1.3003 3.60118
H 1.40961 -0.44043 3.26827
H 2.41372 0.58747 2.21468
C -0.97734 1.2464 -0.83477
C -2.09296 2.17882 -0.33699
H -1.15783 0.96612 -1.88337
H 0.01024 1.72223 -0.75967
C -2.08642 3.4769 -1.13464
H -3.06522 1.67388 -0.44225
H -1.94432 2.3856 0.73332
H -2.88439 4.14497 -0.78582
H -1.12754 4.00247 -1.02276
H -2.24633 3.28208 -2.20456
C -1.97568 -0.96816 -0.21713
C -2.85237 -1.04129 1.04479
H -1.47582 -1.93876 -0.37189
H -2.57497 -0.71912 -1.1027
C -3.93638 -2.09805 0.8755
H -2.21812 -1.28198 1.91126
H -3.3008 -0.05463 1.23252
H -4.55773 -2.1557 1.7784
H -4.59139 -1.85941 0.02577
H -3.49541 -3.08944 0.69951
O 2.7703 -1.13089 -1.2435
H 2.29541 -1.86352 -0.8068
H 3.42068 -0.80632 -0.59318
O 0.30752 -0.99733 -2.4085
H 1.26516 -0.83626 -2.31868
H 0.14172 -1.07108 -3.35681
O 0.7254 -2.90749 -0.5422
H 0.4099 -2.4552 -1.35113
H 0.71978 -3.84843 -0.75636
O 2.27141 1.70036 -0.55737
H 2.32207 0.94952 -1.1671
H 2.9697 1.47569 0.07762
O 4.36239 0.17666 0.6417
H 5.24375 0.47088 0.37267
H 4.50365 -0.28493 1.47963
O -0.16411652 9.14497 0.10005304
H 0.79588348 9.14497 0.10005304
H -0.40448133 10.07439173 0.10005304
O -4.36773137 7.10396325 3.95090859
H -3.40773137 7.10396325 3.95090859
H -4.60809618 8.03338499 3.95090859
O 0.45765255 4.80143 -6.98468479
H 1.41765255 4.80143 -6.98468479
H 0.21728774 5.73085174 -6.98468479
O 5.01306628 3.05791782 6.85277123
H 5.97306628 3.05791782 6.85277123
H 4.77270148 3.98733955 6.85277123
O -9.10216377 1.06436273 -1.48096166
H -8.14216377 1.06436273 -1.48096166
H -9.34252857 1.99378446 -1.48096166
O 7.66980029 -0.98850238 -4.88324358
H 8.62980029 -0.98850238 -4.88324358
H 7.42943548 -0.05908065 -4.88324358
O -2.20503992 -2.72997447 7.69218637
H -1.24503992 -2.72997447 7.69218637
H -2.44540473 -1.80055273 7.69218637
O -3.25151852 -4.42610154 -5.84455164
H -2.29151852 -4.42610154 -5.84455164
H -3.49188333 -3.49667981 -5.84455164
O 4.7769195 -6.45964365 1.90451147
H 5.7369195 -6.45964365 1.90451147
H 4.5365547 -5.53022192 1.90451147
O -0.16411652 -8.84843 0.10005304
H 0.79588348 -8.84843 0.10005304
H -0.40448133 -7.91900827 0.10005304
*
