%nprocshared=12
%mem=12GB
#p opt(addredundant) M062X/def2svp scrf=(cpcm,solvent=water) empiricaldispersion=GD3

Title Card Required

1 2
N  -0.168330  -0.930580  0.378430
C  -0.100000  -0.038600  -0.752680
C  0.858730  -0.520710  -1.850910
H  0.265619  1.907184  0.139069
H  -1.117720  0.104980  -1.142200
C  1.093510  0.607570  -2.848410
H  1.815070  -0.834730  -1.406410
H  0.419280  -1.399560  -2.350240
H  1.746050  0.286090  -3.671810
H  0.142810  0.955890  -3.280040
H  1.570200  1.459250  -2.340270
C  1.025290  -1.208750  1.143900
C  1.501380  -2.659840  0.989280
H  0.772900  -1.000380  2.195420
H  1.800740  -0.501630  0.817970
C  2.817150  -2.856320  1.734020
H  0.734880  -3.353390  1.364680
H  1.665960  -2.883540  -0.075190
H  3.094240  -3.919440  1.728200
H  3.631050  -2.299090  1.247680
H  2.744170  -2.524770  2.781460
C  -1.433960  -1.515340  0.742770
C  -1.802120  -2.703340  -0.168800
H  -2.192600  -0.725850  0.612490
H  -1.398490  -1.829720  1.796620
C  -3.249340  -3.103780  0.095470
H  -1.665130  -2.423780  -1.225520
H  -1.123590  -3.545690  0.037670
H  -3.526720  -3.984190  -0.499640
H  -3.395410  -3.347370  1.158270
H  -3.927580  -2.280280  -0.171110
O  0.257640  3.163560  0.771050
H  -0.616730  3.033720  0.358590
H  0.841350  3.583490  0.107390
O  -0.626780  1.089650  2.278800
H  -0.102290  1.871320  2.018720
H  -0.690840  1.125300  3.241320
O  -2.314140  2.128230  0.398950
H  -1.991370  1.689040  1.210320
H  -3.167510  2.561500  0.621960
O  2.604250  1.534580  0.206310
H  1.879490  1.833740  0.774560
H  2.726870  2.321370  -0.353920
O  2.219230  4.042510  -0.991070
H  2.770130  4.851440  -0.839000
H  1.947580  4.103470  -1.915800
O  -3.500610  0.371630  -1.410760
H  -4.103990  0.975010  -1.877190
H  -3.048480  0.967730  -0.783610
O  6.015040  -1.929510  -0.328260
H  6.287350  -1.023530  -0.504380
H  6.791640  -2.407310  -0.022600
O  3.614560  -2.988060  -1.531440
H  4.394530  -2.611620  -1.098020
H  3.927910  -3.732280  -2.052270
O  2.850790  -0.298550  5.662040
H  3.309350  0.489500  5.353650
H  3.388990  -0.685630  6.357860
O  3.258460  0.079080  -5.588000
H  2.908260  0.044700  -6.482780
H  3.984850  -0.549890  -5.542250
O  0.137890  -5.795260  0.635730
H  0.018380  -6.455470  1.324280
H  0.408780  -6.265740  -0.157560
O  3.677760  6.307480  -0.703560
H  3.401220  6.894260  0.007080
H  4.631120  6.198750  -0.630800
O  -0.800080  -3.107490  -3.722190
H  -1.440980  -2.880070  -4.402180
H  -0.286260  -3.846890  -4.059450
O  -1.966490  -2.901930  3.961610
H  -2.704410  -2.521620  4.447290
H  -1.521820  -3.507320  4.562260
O  -4.865990  6.000770  0.389330
H  -5.129620  6.439830  -0.424940
H  -4.073500  6.443790  0.710390
O  -8.364520  -1.978770  -2.073890
H  -7.535620  -1.564970  -2.334570
H  -8.168740  -2.899300  -1.874320
O  -4.832780  3.190100  0.568210
H  -4.918060  4.166540  0.578130
H  -5.530120  2.824910  1.151390
O  8.177150  -3.443400  0.664740
H  8.069610  -3.693990  1.588250
H  8.360030  -4.249060  0.170840
O  4.666710  -5.069280  -3.319050
H  5.327730  -4.768320  -3.949920
H  4.038910  -5.612990  -3.804090
O  4.537010  1.851860  4.860790
H  4.286800  2.765970  4.694380
H  5.142700  1.591430  4.159180
O  6.725050  3.446310  -3.794410
H  6.010930  3.673030  -4.399170
H  6.401300  2.724340  -3.244620
O  -0.185870  -7.786860  2.686850
H  0.344130  -7.679550  3.482890
H  -1.050800  -8.109690  2.959900
O  2.834030  7.980840  1.395250
H  2.758650  8.934730  1.298980
H  2.078450  7.685140  1.913110
O  -2.791430  -2.525140  -5.690670
H  -2.794210  -1.643120  -6.075560
H  -3.663880  -2.670720  -5.311740
O  -1.597940  -0.127540  8.312110
H  -1.216450  0.643380  7.879040
H  -0.899620  -0.787470  8.371890
O  -0.966180  8.993780  -1.641750
H  -0.670240  9.629630  -2.299760
H  -0.625590  8.133120  -1.908510
O  -7.499740  -4.678410  -1.517550
H  -7.559410  -5.112650  -0.660910
H  -7.310680  -5.360410  -2.169830
O  -6.838590  1.984500  2.216510
H  -6.508050  1.524330  2.994520
H  -7.413110  1.369180  1.749380
O  -5.140560  2.670800  -2.164190
H  -6.082610  2.742780  -2.337110
H  -5.030430  2.790480  -1.202490

B 32 4 F
X 50 F
X 51 F
X 52 F
X 53 F
X 54 F
X 55 F
X 56 F
X 57 F
X 58 F
X 59 F
X 60 F
X 61 F
X 62 F
X 63 F
X 64 F
X 65 F
X 66 F
X 67 F
X 68 F
X 69 F
X 70 F
X 71 F
X 72 F
X 73 F
X 74 F
X 75 F
X 76 F
X 77 F
X 78 F
X 79 F
X 80 F
X 81 F
X 82 F
X 83 F
X 84 F
X 85 F
X 86 F
X 87 F
X 88 F
X 89 F
X 90 F
X 91 F
X 92 F
X 93 F
X 94 F
X 95 F
X 96 F
X 97 F
X 98 F
X 99 F
X 100 F
X 101 F
X 102 F
X 103 F
X 104 F
X 105 F
X 106 F
X 107 F
X 108 F
X 109 F
X 110 F
X 111 F
X 112 F
X 113 F
X 114 F
X 115 F
X 116 F
X 117 F
X 118 F

