#p opt M062x/def2svp

Title Card Required

1 2
O  0.000000  0.000000  0.117790
H  0.000000  0.597722  -0.348194
H  0.000000  -0.755453  -0.471161

B 1 2 F
X 3 F
X 4 F

